%chk=mol_003_E_scan_pt1.chk
%nprocshared=8
%mem=16GB
#p wB97XD/6-311+G(d,p) opt=(ModRedundant,CalcFC,MaxCycles=300) SCF=(Tight,XQC) NoSymm scrf=(smd,solvent=water)

mol_003_E scan pt1 (R0+0.05A) rigid O-N displacement then constrained opt  [oxime: C3=N2-O1]

1 1
O        3.81670569     -0.60312251     -0.00100769
N        2.36007400     -1.15525500      0.01041700
C        1.57597300     -0.14206700      0.00495000
C        1.89006800      1.32567100     -0.00272700
C        0.52338300      2.03579600      0.00620500
C       -0.48222900      0.92105800      0.00401600
C       -1.86787200      1.01818900      0.00063500
C       -2.57752200     -0.16613000     -0.00198700
F       -3.92316100     -0.10119300     -0.00634200
C       -1.99086700     -1.42870600     -0.00122500
C       -0.61164100     -1.51619400      0.00236500
C        0.13047100     -0.33322200      0.00503300
H        4.22949369     -0.88848851     -0.83780369
H        4.29935769     -1.04461251      0.72238031
H        2.49990400      1.56874800      0.86945900
H        2.48282800      1.56319800     -0.88830100
H        0.39541200      2.67564500     -0.86890000
H        0.40222700      2.66382300      0.89097700
H       -2.38284800      1.97096300     -0.00066200
H       -2.61719400     -2.31175500     -0.00423900
H       -0.12595000     -2.48417800      0.00204800

B 2 1 F

--Link1--
%chk=mol_003_E_scan_pt1.chk
%nprocshared=8
%mem=16GB
#p wB97XD/6-311+G(d,p) Geom=Check Guess=Read Stable=Opt Pop=NBO7Read Density=Current scrf=(smd,solvent=water)

mol_003_E SP+NBO7/CMO after constrained opt at R0+0.05A  [oxime: C3=N2-O1]

1 1

$NBO CMO PRINT=2 E2PERT=0.05 BNDIDX $END

--Link1--
%chk=mol_003_E_scan_pt2.chk
%nprocshared=8
%mem=16GB
#p wB97XD/6-311+G(d,p) opt=(ModRedundant,CalcFC,MaxCycles=300) SCF=(Tight,XQC) NoSymm scrf=(smd,solvent=water)

mol_003_E scan pt2 (R0+0.10A) rigid O-N displacement then constrained opt  [oxime: C3=N2-O1]

1 1
O        3.86345839     -0.58540102     -0.00137438
N        2.36007400     -1.15525500      0.01041700
C        1.57597300     -0.14206700      0.00495000
C        1.89006800      1.32567100     -0.00272700
C        0.52338300      2.03579600      0.00620500
C       -0.48222900      0.92105800      0.00401600
C       -1.86787200      1.01818900      0.00063500
C       -2.57752200     -0.16613000     -0.00198700
F       -3.92316100     -0.10119300     -0.00634200
C       -1.99086700     -1.42870600     -0.00122500
C       -0.61164100     -1.51619400      0.00236500
C        0.13047100     -0.33322200      0.00503300
H        4.27624639     -0.87076702     -0.83817038
H        4.34611039     -1.02689102      0.72201362
H        2.49990400      1.56874800      0.86945900
H        2.48282800      1.56319800     -0.88830100
H        0.39541200      2.67564500     -0.86890000
H        0.40222700      2.66382300      0.89097700
H       -2.38284800      1.97096300     -0.00066200
H       -2.61719400     -2.31175500     -0.00423900
H       -0.12595000     -2.48417800      0.00204800

B 2 1 F

--Link1--
%chk=mol_003_E_scan_pt2.chk
%nprocshared=8
%mem=16GB
#p wB97XD/6-311+G(d,p) Geom=Check Guess=Read Stable=Opt Pop=NBO7Read Density=Current scrf=(smd,solvent=water)

mol_003_E SP+NBO7/CMO after constrained opt at R0+0.10A  [oxime: C3=N2-O1]

1 1

$NBO CMO PRINT=2 E2PERT=0.05 BNDIDX $END

--Link1--
%chk=mol_003_E_scan_pt3.chk
%nprocshared=8
%mem=16GB
#p wB97XD/6-311+G(d,p) opt=(ModRedundant,CalcFC,MaxCycles=300) SCF=(Tight,XQC) NoSymm scrf=(smd,solvent=water)

mol_003_E scan pt3 (R0+0.15A) rigid O-N displacement then constrained opt  [oxime: C3=N2-O1]

1 1
O        3.91021108     -0.56767954     -0.00174108
N        2.36007400     -1.15525500      0.01041700
C        1.57597300     -0.14206700      0.00495000
C        1.89006800      1.32567100     -0.00272700
C        0.52338300      2.03579600      0.00620500
C       -0.48222900      0.92105800      0.00401600
C       -1.86787200      1.01818900      0.00063500
C       -2.57752200     -0.16613000     -0.00198700
F       -3.92316100     -0.10119300     -0.00634200
C       -1.99086700     -1.42870600     -0.00122500
C       -0.61164100     -1.51619400      0.00236500
C        0.13047100     -0.33322200      0.00503300
H        4.32299908     -0.85304554     -0.83853708
H        4.39286308     -1.00916954      0.72164692
H        2.49990400      1.56874800      0.86945900
H        2.48282800      1.56319800     -0.88830100
H        0.39541200      2.67564500     -0.86890000
H        0.40222700      2.66382300      0.89097700
H       -2.38284800      1.97096300     -0.00066200
H       -2.61719400     -2.31175500     -0.00423900
H       -0.12595000     -2.48417800      0.00204800

B 2 1 F

--Link1--
%chk=mol_003_E_scan_pt3.chk
%nprocshared=8
%mem=16GB
#p wB97XD/6-311+G(d,p) Geom=Check Guess=Read Stable=Opt Pop=NBO7Read Density=Current scrf=(smd,solvent=water)

mol_003_E SP+NBO7/CMO after constrained opt at R0+0.15A  [oxime: C3=N2-O1]

1 1

$NBO CMO PRINT=2 E2PERT=0.05 BNDIDX $END

--Link1--
%chk=mol_003_E_scan_pt4.chk
%nprocshared=8
%mem=16GB
#p wB97XD/6-311+G(d,p) opt=(ModRedundant,CalcFC,MaxCycles=300) SCF=(Tight,XQC) NoSymm scrf=(smd,solvent=water)

mol_003_E scan pt4 (R0+0.20A) rigid O-N displacement then constrained opt  [oxime: C3=N2-O1]

1 1
O        3.95696378     -0.54995805     -0.00210777
N        2.36007400     -1.15525500      0.01041700
C        1.57597300     -0.14206700      0.00495000
C        1.89006800      1.32567100     -0.00272700
C        0.52338300      2.03579600      0.00620500
C       -0.48222900      0.92105800      0.00401600
C       -1.86787200      1.01818900      0.00063500
C       -2.57752200     -0.16613000     -0.00198700
F       -3.92316100     -0.10119300     -0.00634200
C       -1.99086700     -1.42870600     -0.00122500
C       -0.61164100     -1.51619400      0.00236500
C        0.13047100     -0.33322200      0.00503300
H        4.36975178     -0.83532405     -0.83890377
H        4.43961578     -0.99144805      0.72128023
H        2.49990400      1.56874800      0.86945900
H        2.48282800      1.56319800     -0.88830100
H        0.39541200      2.67564500     -0.86890000
H        0.40222700      2.66382300      0.89097700
H       -2.38284800      1.97096300     -0.00066200
H       -2.61719400     -2.31175500     -0.00423900
H       -0.12595000     -2.48417800      0.00204800

B 2 1 F

--Link1--
%chk=mol_003_E_scan_pt4.chk
%nprocshared=8
%mem=16GB
#p wB97XD/6-311+G(d,p) Geom=Check Guess=Read Stable=Opt Pop=NBO7Read Density=Current scrf=(smd,solvent=water)

mol_003_E SP+NBO7/CMO after constrained opt at R0+0.20A  [oxime: C3=N2-O1]

1 1

$NBO CMO PRINT=2 E2PERT=0.05 BNDIDX $END

--Link1--
%chk=mol_003_E_scan_pt5.chk
%nprocshared=8
%mem=16GB
#p wB97XD/6-311+G(d,p) opt=(ModRedundant,CalcFC,MaxCycles=300) SCF=(Tight,XQC) NoSymm scrf=(smd,solvent=water)

mol_003_E scan pt5 (R0+0.25A) rigid O-N displacement then constrained opt  [oxime: C3=N2-O1]

1 1
O        4.00371647     -0.53223656     -0.00247446
N        2.36007400     -1.15525500      0.01041700
C        1.57597300     -0.14206700      0.00495000
C        1.89006800      1.32567100     -0.00272700
C        0.52338300      2.03579600      0.00620500
C       -0.48222900      0.92105800      0.00401600
C       -1.86787200      1.01818900      0.00063500
C       -2.57752200     -0.16613000     -0.00198700
F       -3.92316100     -0.10119300     -0.00634200
C       -1.99086700     -1.42870600     -0.00122500
C       -0.61164100     -1.51619400      0.00236500
C        0.13047100     -0.33322200      0.00503300
H        4.41650447     -0.81760256     -0.83927046
H        4.48636847     -0.97372656      0.72091354
H        2.49990400      1.56874800      0.86945900
H        2.48282800      1.56319800     -0.88830100
H        0.39541200      2.67564500     -0.86890000
H        0.40222700      2.66382300      0.89097700
H       -2.38284800      1.97096300     -0.00066200
H       -2.61719400     -2.31175500     -0.00423900
H       -0.12595000     -2.48417800      0.00204800

B 2 1 F

--Link1--
%chk=mol_003_E_scan_pt5.chk
%nprocshared=8
%mem=16GB
#p wB97XD/6-311+G(d,p) Geom=Check Guess=Read Stable=Opt Pop=NBO7Read Density=Current scrf=(smd,solvent=water)

mol_003_E SP+NBO7/CMO after constrained opt at R0+0.25A  [oxime: C3=N2-O1]

1 1

$NBO CMO PRINT=2 E2PERT=0.05 BNDIDX $END

--Link1--
%chk=mol_003_E_scan_pt6.chk
%nprocshared=8
%mem=16GB
#p wB97XD/6-311+G(d,p) opt=(ModRedundant,CalcFC,MaxCycles=300) SCF=(Tight,XQC) NoSymm scrf=(smd,solvent=water)

mol_003_E scan pt6 (R0+0.30A) rigid O-N displacement then constrained opt  [oxime: C3=N2-O1]

1 1
O        4.05046916     -0.51451507     -0.00284115
N        2.36007400     -1.15525500      0.01041700
C        1.57597300     -0.14206700      0.00495000
C        1.89006800      1.32567100     -0.00272700
C        0.52338300      2.03579600      0.00620500
C       -0.48222900      0.92105800      0.00401600
C       -1.86787200      1.01818900      0.00063500
C       -2.57752200     -0.16613000     -0.00198700
F       -3.92316100     -0.10119300     -0.00634200
C       -1.99086700     -1.42870600     -0.00122500
C       -0.61164100     -1.51619400      0.00236500
C        0.13047100     -0.33322200      0.00503300
H        4.46325716     -0.79988107     -0.83963715
H        4.53312116     -0.95600507      0.72054685
H        2.49990400      1.56874800      0.86945900
H        2.48282800      1.56319800     -0.88830100
H        0.39541200      2.67564500     -0.86890000
H        0.40222700      2.66382300      0.89097700
H       -2.38284800      1.97096300     -0.00066200
H       -2.61719400     -2.31175500     -0.00423900
H       -0.12595000     -2.48417800      0.00204800

B 2 1 F

--Link1--
%chk=mol_003_E_scan_pt6.chk
%nprocshared=8
%mem=16GB
#p wB97XD/6-311+G(d,p) Geom=Check Guess=Read Stable=Opt Pop=NBO7Read Density=Current scrf=(smd,solvent=water)

mol_003_E SP+NBO7/CMO after constrained opt at R0+0.30A  [oxime: C3=N2-O1]

1 1

$NBO CMO PRINT=2 E2PERT=0.05 BNDIDX $END


