%chk=mol_017_E_opt.chk
%nprocshared=8
%mem=16GB
#p wB97XD/6-311+G(d,p) opt scrf=(smd,solvent=water)

mol_017_E opt  [oxime: C3=N2-O1]

1 1
O        3.32650000      1.28130000     -0.42490000
N        1.72150000      1.60160000     -0.13180000
C        1.11930000      0.47660000     -0.13620000
C        1.62010000     -0.92590000     -0.34590000
C        0.37900000     -1.82290000     -0.22440000
C       -0.74410000     -0.86950000      0.04240000
C       -2.08620000     -1.13450000      0.23290000
F       -2.52180000     -2.40250000      0.18610000
C       -2.98730000     -0.10730000      0.47150000
C       -2.54060000      1.21050000      0.52120000
C       -1.20500000      1.52460000      0.33580000
C       -0.32440000      0.46820000      0.09720000
H        3.49570000      1.85270000     -1.19940000
H        3.74970000      1.71070000      0.34430000
H        2.10250000     -0.98840000     -1.31940000
H        2.38430000     -1.14530000      0.39710000
H        0.20380000     -2.39220000     -1.13410000
H        0.48200000     -2.54400000      0.58300000
H       -4.03270000     -0.33980000      0.61740000
H       -3.26100000      1.99230000      0.70860000
H       -0.88130000      2.55380000      0.37890000


