%chk=mol_017_E_scan_pt1.chk
%nprocshared=8
%mem=16GB
#p wB97XD/6-311+G(d,p) opt=(ModRedundant) SCF=(Tight,XQC) NoSymm scrf=(smd,solvent=water)

mol_017_E scan pt1 (R0+0.05A) rigid O-N displacement then constrained opt  [oxime: C3=N2-O1]

1 1
O        3.76719770      0.11200592      0.03372884
N        2.44251500      0.92287300      0.00723300
C        1.48300400      0.07570000     -0.00163000
C        1.51728900     -1.42395600     -0.00196100
C        0.04264400     -1.87144700     -0.00072200
C       -0.72815000     -0.58610000     -0.00305700
C       -2.09535400     -0.37897100      0.00271300
F       -2.91739800     -1.45002800      0.01005000
C       -2.63761300      0.88994000      0.00230600
C       -1.78781500      1.99953900     -0.00478300
C       -0.41173800      1.83858700     -0.01080400
C        0.09501600      0.53949100     -0.00936200
H        4.16727970      0.13487092     -0.85716116
H        4.37005570      0.58572192      0.63590084
H        2.06110900     -1.77271700     -0.88220600
H        2.06475100     -1.77177400      0.87614700
H       -0.19740200     -2.47287700     -0.87954200
H       -0.19679200     -2.46929800      0.88072000
H       -3.71424500      1.01164800      0.00787000
H       -2.21828000      2.99332400     -0.00481200
H        0.24761100      2.69748500     -0.01551200

B 2 1 F

--Link1--
%chk=mol_017_E_scan_pt1.chk
%nprocshared=8
%mem=16GB
#p wB97XD/6-311+G(d,p) Geom=Check Guess=Read Stable=Opt Pop=NBO7Read Density=Current scrf=(smd,solvent=water)

mol_017_E SP+NBO7/CMO after constrained opt at R0+0.05A  [oxime: C3=N2-O1]

1 1

$NBO CMO PRINT=2 E2PERT=0.05 BNDIDX $END

--Link1--
%chk=mol_017_E_scan_pt2.chk
%nprocshared=8
%mem=16GB
#p wB97XD/6-311+G(d,p) opt=(ModRedundant) SCF=(Tight,XQC) NoSymm scrf=(smd,solvent=water)

mol_017_E scan pt2 (R0+0.10A) rigid O-N displacement then constrained opt  [oxime: C3=N2-O1]

1 1
O        3.80983640      0.08590585      0.03458169
N        2.44251500      0.92287300      0.00723300
C        1.48300400      0.07570000     -0.00163000
C        1.51728900     -1.42395600     -0.00196100
C        0.04264400     -1.87144700     -0.00072200
C       -0.72815000     -0.58610000     -0.00305700
C       -2.09535400     -0.37897100      0.00271300
F       -2.91739800     -1.45002800      0.01005000
C       -2.63761300      0.88994000      0.00230600
C       -1.78781500      1.99953900     -0.00478300
C       -0.41173800      1.83858700     -0.01080400
C        0.09501600      0.53949100     -0.00936200
H        4.20991840      0.10877085     -0.85630831
H        4.41269440      0.55962185      0.63675369
H        2.06110900     -1.77271700     -0.88220600
H        2.06475100     -1.77177400      0.87614700
H       -0.19740200     -2.47287700     -0.87954200
H       -0.19679200     -2.46929800      0.88072000
H       -3.71424500      1.01164800      0.00787000
H       -2.21828000      2.99332400     -0.00481200
H        0.24761100      2.69748500     -0.01551200

B 2 1 F

--Link1--
%chk=mol_017_E_scan_pt2.chk
%nprocshared=8
%mem=16GB
#p wB97XD/6-311+G(d,p) Geom=Check Guess=Read Stable=Opt Pop=NBO7Read Density=Current scrf=(smd,solvent=water)

mol_017_E SP+NBO7/CMO after constrained opt at R0+0.10A  [oxime: C3=N2-O1]

1 1

$NBO CMO PRINT=2 E2PERT=0.05 BNDIDX $END

--Link1--
%chk=mol_017_E_scan_pt3.chk
%nprocshared=8
%mem=16GB
#p wB97XD/6-311+G(d,p) opt=(ModRedundant) SCF=(Tight,XQC) NoSymm scrf=(smd,solvent=water)

mol_017_E scan pt3 (R0+0.15A) rigid O-N displacement then constrained opt  [oxime: C3=N2-O1]

1 1
O        3.85247510      0.05980577      0.03543453
N        2.44251500      0.92287300      0.00723300
C        1.48300400      0.07570000     -0.00163000
C        1.51728900     -1.42395600     -0.00196100
C        0.04264400     -1.87144700     -0.00072200
C       -0.72815000     -0.58610000     -0.00305700
C       -2.09535400     -0.37897100      0.00271300
F       -2.91739800     -1.45002800      0.01005000
C       -2.63761300      0.88994000      0.00230600
C       -1.78781500      1.99953900     -0.00478300
C       -0.41173800      1.83858700     -0.01080400
C        0.09501600      0.53949100     -0.00936200
H        4.25255710      0.08267077     -0.85545547
H        4.45533310      0.53352177      0.63760653
H        2.06110900     -1.77271700     -0.88220600
H        2.06475100     -1.77177400      0.87614700
H       -0.19740200     -2.47287700     -0.87954200
H       -0.19679200     -2.46929800      0.88072000
H       -3.71424500      1.01164800      0.00787000
H       -2.21828000      2.99332400     -0.00481200
H        0.24761100      2.69748500     -0.01551200

B 2 1 F

--Link1--
%chk=mol_017_E_scan_pt3.chk
%nprocshared=8
%mem=16GB
#p wB97XD/6-311+G(d,p) Geom=Check Guess=Read Stable=Opt Pop=NBO7Read Density=Current scrf=(smd,solvent=water)

mol_017_E SP+NBO7/CMO after constrained opt at R0+0.15A  [oxime: C3=N2-O1]

1 1

$NBO CMO PRINT=2 E2PERT=0.05 BNDIDX $END

--Link1--
%chk=mol_017_E_scan_pt4.chk
%nprocshared=8
%mem=16GB
#p wB97XD/6-311+G(d,p) opt=(ModRedundant) SCF=(Tight,XQC) NoSymm scrf=(smd,solvent=water)

mol_017_E scan pt4 (R0+0.20A) rigid O-N displacement then constrained opt  [oxime: C3=N2-O1]

1 1
O        3.89511380      0.03370570      0.03628738
N        2.44251500      0.92287300      0.00723300
C        1.48300400      0.07570000     -0.00163000
C        1.51728900     -1.42395600     -0.00196100
C        0.04264400     -1.87144700     -0.00072200
C       -0.72815000     -0.58610000     -0.00305700
C       -2.09535400     -0.37897100      0.00271300
F       -2.91739800     -1.45002800      0.01005000
C       -2.63761300      0.88994000      0.00230600
C       -1.78781500      1.99953900     -0.00478300
C       -0.41173800      1.83858700     -0.01080400
C        0.09501600      0.53949100     -0.00936200
H        4.29519580      0.05657070     -0.85460262
H        4.49797180      0.50742170      0.63845938
H        2.06110900     -1.77271700     -0.88220600
H        2.06475100     -1.77177400      0.87614700
H       -0.19740200     -2.47287700     -0.87954200
H       -0.19679200     -2.46929800      0.88072000
H       -3.71424500      1.01164800      0.00787000
H       -2.21828000      2.99332400     -0.00481200
H        0.24761100      2.69748500     -0.01551200

B 2 1 F

--Link1--
%chk=mol_017_E_scan_pt4.chk
%nprocshared=8
%mem=16GB
#p wB97XD/6-311+G(d,p) Geom=Check Guess=Read Stable=Opt Pop=NBO7Read Density=Current scrf=(smd,solvent=water)

mol_017_E SP+NBO7/CMO after constrained opt at R0+0.20A  [oxime: C3=N2-O1]

1 1

$NBO CMO PRINT=2 E2PERT=0.05 BNDIDX $END

--Link1--
%chk=mol_017_E_scan_pt5.chk
%nprocshared=8
%mem=16GB
#p wB97XD/6-311+G(d,p) opt=(ModRedundant) SCF=(Tight,XQC) NoSymm scrf=(smd,solvent=water)

mol_017_E scan pt5 (R0+0.25A) rigid O-N displacement then constrained opt  [oxime: C3=N2-O1]

1 1
O        3.93775250      0.00760562      0.03714022
N        2.44251500      0.92287300      0.00723300
C        1.48300400      0.07570000     -0.00163000
C        1.51728900     -1.42395600     -0.00196100
C        0.04264400     -1.87144700     -0.00072200
C       -0.72815000     -0.58610000     -0.00305700
C       -2.09535400     -0.37897100      0.00271300
F       -2.91739800     -1.45002800      0.01005000
C       -2.63761300      0.88994000      0.00230600
C       -1.78781500      1.99953900     -0.00478300
C       -0.41173800      1.83858700     -0.01080400
C        0.09501600      0.53949100     -0.00936200
H        4.33783450      0.03047062     -0.85374978
H        4.54061050      0.48132162      0.63931222
H        2.06110900     -1.77271700     -0.88220600
H        2.06475100     -1.77177400      0.87614700
H       -0.19740200     -2.47287700     -0.87954200
H       -0.19679200     -2.46929800      0.88072000
H       -3.71424500      1.01164800      0.00787000
H       -2.21828000      2.99332400     -0.00481200
H        0.24761100      2.69748500     -0.01551200

B 2 1 F

--Link1--
%chk=mol_017_E_scan_pt5.chk
%nprocshared=8
%mem=16GB
#p wB97XD/6-311+G(d,p) Geom=Check Guess=Read Stable=Opt Pop=NBO7Read Density=Current scrf=(smd,solvent=water)

mol_017_E SP+NBO7/CMO after constrained opt at R0+0.25A  [oxime: C3=N2-O1]

1 1

$NBO CMO PRINT=2 E2PERT=0.05 BNDIDX $END

--Link1--
%chk=mol_017_E_scan_pt6.chk
%nprocshared=8
%mem=16GB
#p wB97XD/6-311+G(d,p) opt=(ModRedundant) SCF=(Tight,XQC) NoSymm scrf=(smd,solvent=water)

mol_017_E scan pt6 (R0+0.30A) rigid O-N displacement then constrained opt  [oxime: C3=N2-O1]

1 1
O        3.98039120     -0.01849445      0.03799307
N        2.44251500      0.92287300      0.00723300
C        1.48300400      0.07570000     -0.00163000
C        1.51728900     -1.42395600     -0.00196100
C        0.04264400     -1.87144700     -0.00072200
C       -0.72815000     -0.58610000     -0.00305700
C       -2.09535400     -0.37897100      0.00271300
F       -2.91739800     -1.45002800      0.01005000
C       -2.63761300      0.88994000      0.00230600
C       -1.78781500      1.99953900     -0.00478300
C       -0.41173800      1.83858700     -0.01080400
C        0.09501600      0.53949100     -0.00936200
H        4.38047320      0.00437055     -0.85289693
H        4.58324920      0.45522155      0.64016507
H        2.06110900     -1.77271700     -0.88220600
H        2.06475100     -1.77177400      0.87614700
H       -0.19740200     -2.47287700     -0.87954200
H       -0.19679200     -2.46929800      0.88072000
H       -3.71424500      1.01164800      0.00787000
H       -2.21828000      2.99332400     -0.00481200
H        0.24761100      2.69748500     -0.01551200

B 2 1 F

--Link1--
%chk=mol_017_E_scan_pt6.chk
%nprocshared=8
%mem=16GB
#p wB97XD/6-311+G(d,p) Geom=Check Guess=Read Stable=Opt Pop=NBO7Read Density=Current scrf=(smd,solvent=water)

mol_017_E SP+NBO7/CMO after constrained opt at R0+0.30A  [oxime: C3=N2-O1]

1 1

$NBO CMO PRINT=2 E2PERT=0.05 BNDIDX $END


