%chk=mol_012_Z_opt.chk
%nprocshared=8
%mem=16GB
#p wB97XD/6-311+G(d,p) opt scrf=(smd,solvent=water)

mol_012_Z opt  [oxime: C10=N11-O12]

1 1
O        4.35460000     -0.90670000     -0.18730000
N        3.51450000     -0.02120000     -0.23500000
O        3.73610000      1.17590000     -0.38460000
C        2.09890000     -0.42460000     -0.09980000
C        1.77880000     -1.76640000      0.08440000
C        0.45680000     -2.15190000      0.21020000
C       -0.54300000     -1.19050000      0.15200000
C       -0.19590000      0.16270000     -0.03570000
C        1.13450000      0.55820000     -0.16630000
C       -1.42990000      0.94050000     -0.06690000
N       -1.80550000      2.15460000     -0.08080000
O       -0.43280000      3.15040000     -0.12660000
C       -2.62730000     -0.01030000     -0.04730000
C       -2.01620000     -1.38600000      0.28340000
H        2.57520000     -2.49230000      0.12460000
H        0.21050000     -3.19450000      0.35190000
H        1.46660000      1.57040000     -0.32600000
H       -0.43150000      3.55770000      0.76240000
H       -0.72500000      3.82980000     -0.76500000
H       -3.08340000     -0.00380000     -1.03440000
H       -3.39010000      0.31130000      0.65430000
H       -2.38300000     -2.17480000     -0.36890000
H       -2.26320000     -1.68830000      1.30150000


