%chk=mol_012_Z_scan_pt1.chk
%nprocshared=8
%mem=16GB
#p wB97XD/6-311+G(d,p) opt=(ModRedundant) SCF=(Tight,XQC) NoSymm scrf=(smd,solvent=water)

mol_012_Z scan pt1 (R0+0.05A) rigid O-N displacement then constrained opt  [oxime: C10=N11-O12]

1 1
O        3.89110500     -0.26294200     -0.03972300
N        2.89653600      0.44075400     -0.04750100
O        2.93606900      1.65812700     -0.08926500
C        1.58530700     -0.21125100     -0.00278700
C        1.53357000     -1.60218000      0.08305900
C        0.30286300     -2.23181200      0.11663300
C       -0.85321700     -1.46151900      0.05930100
C       -0.77332900     -0.06476000     -0.02231200
C        0.45727800      0.58649100     -0.05403300
C       -2.13953500      0.46272700     -0.08211200
N       -2.65366000      1.63066100      0.00180600
O       -1.51353595      2.67368911      0.16709393
C       -3.09568800     -0.69013800     -0.26124900
C       -2.27172100     -1.93943600      0.08782700
H        2.44932600     -2.17654400      0.12028800
H        0.24430300     -3.31115400      0.18090600
H        0.54995700      1.65833700     -0.12897100
H       -1.40583695      2.87295911      1.11775693
H       -1.81921895      3.48863911     -0.27166107
H       -3.38914800     -0.70464300     -1.31456400
H       -3.99496100     -0.56792000      0.33996400
H       -2.43700200     -2.75956700     -0.61136200
H       -2.51300200     -2.30415600      1.08988300

B 11 12 F

--Link1--
%chk=mol_012_Z_scan_pt1.chk
%nprocshared=8
%mem=16GB
#p wB97XD/6-311+G(d,p) Geom=Check Guess=Read Stable=Opt Pop=NBO7Read Density=Current scrf=(smd,solvent=water)

mol_012_Z SP+NBO7/CMO after constrained opt at R0+0.05A  [oxime: C10=N11-O12]

1 1

$NBO CMO PRINT=2 E2PERT=0.05 BNDIDX $END

--Link1--
%chk=mol_012_Z_scan_pt2.chk
%nprocshared=8
%mem=16GB
#p wB97XD/6-311+G(d,p) opt=(ModRedundant) SCF=(Tight,XQC) NoSymm scrf=(smd,solvent=water)

mol_012_Z scan pt2 (R0+0.10A) rigid O-N displacement then constrained opt  [oxime: C10=N11-O12]

1 1
O        3.89110500     -0.26294200     -0.03972300
N        2.89653600      0.44075400     -0.04750100
O        2.93606900      1.65812700     -0.08926500
C        1.58530700     -0.21125100     -0.00278700
C        1.53357000     -1.60218000      0.08305900
C        0.30286300     -2.23181200      0.11663300
C       -0.85321700     -1.46151900      0.05930100
C       -0.77332900     -0.06476000     -0.02231200
C        0.45727800      0.58649100     -0.05403300
C       -2.13953500      0.46272700     -0.08211200
N       -2.65366000      1.63066100      0.00180600
O       -1.47685390      2.70724722      0.17241186
C       -3.09568800     -0.69013800     -0.26124900
C       -2.27172100     -1.93943600      0.08782700
H        2.44932600     -2.17654400      0.12028800
H        0.24430300     -3.31115400      0.18090600
H        0.54995700      1.65833700     -0.12897100
H       -1.36915490      2.90651722      1.12307486
H       -1.78253690      3.52219722     -0.26634314
H       -3.38914800     -0.70464300     -1.31456400
H       -3.99496100     -0.56792000      0.33996400
H       -2.43700200     -2.75956700     -0.61136200
H       -2.51300200     -2.30415600      1.08988300

B 11 12 F

--Link1--
%chk=mol_012_Z_scan_pt2.chk
%nprocshared=8
%mem=16GB
#p wB97XD/6-311+G(d,p) Geom=Check Guess=Read Stable=Opt Pop=NBO7Read Density=Current scrf=(smd,solvent=water)

mol_012_Z SP+NBO7/CMO after constrained opt at R0+0.10A  [oxime: C10=N11-O12]

1 1

$NBO CMO PRINT=2 E2PERT=0.05 BNDIDX $END

--Link1--
%chk=mol_012_Z_scan_pt3.chk
%nprocshared=8
%mem=16GB
#p wB97XD/6-311+G(d,p) opt=(ModRedundant) SCF=(Tight,XQC) NoSymm scrf=(smd,solvent=water)

mol_012_Z scan pt3 (R0+0.15A) rigid O-N displacement then constrained opt  [oxime: C10=N11-O12]

1 1
O        3.89110500     -0.26294200     -0.03972300
N        2.89653600      0.44075400     -0.04750100
O        2.93606900      1.65812700     -0.08926500
C        1.58530700     -0.21125100     -0.00278700
C        1.53357000     -1.60218000      0.08305900
C        0.30286300     -2.23181200      0.11663300
C       -0.85321700     -1.46151900      0.05930100
C       -0.77332900     -0.06476000     -0.02231200
C        0.45727800      0.58649100     -0.05403300
C       -2.13953500      0.46272700     -0.08211200
N       -2.65366000      1.63066100      0.00180600
O       -1.44017185      2.74080533      0.17772979
C       -3.09568800     -0.69013800     -0.26124900
C       -2.27172100     -1.93943600      0.08782700
H        2.44932600     -2.17654400      0.12028800
H        0.24430300     -3.31115400      0.18090600
H        0.54995700      1.65833700     -0.12897100
H       -1.33247285      2.94007533      1.12839279
H       -1.74585485      3.55575533     -0.26102521
H       -3.38914800     -0.70464300     -1.31456400
H       -3.99496100     -0.56792000      0.33996400
H       -2.43700200     -2.75956700     -0.61136200
H       -2.51300200     -2.30415600      1.08988300

B 11 12 F

--Link1--
%chk=mol_012_Z_scan_pt3.chk
%nprocshared=8
%mem=16GB
#p wB97XD/6-311+G(d,p) Geom=Check Guess=Read Stable=Opt Pop=NBO7Read Density=Current scrf=(smd,solvent=water)

mol_012_Z SP+NBO7/CMO after constrained opt at R0+0.15A  [oxime: C10=N11-O12]

1 1

$NBO CMO PRINT=2 E2PERT=0.05 BNDIDX $END

--Link1--
%chk=mol_012_Z_scan_pt4.chk
%nprocshared=8
%mem=16GB
#p wB97XD/6-311+G(d,p) opt=(ModRedundant) SCF=(Tight,XQC) NoSymm scrf=(smd,solvent=water)

mol_012_Z scan pt4 (R0+0.20A) rigid O-N displacement then constrained opt  [oxime: C10=N11-O12]

1 1
O        3.89110500     -0.26294200     -0.03972300
N        2.89653600      0.44075400     -0.04750100
O        2.93606900      1.65812700     -0.08926500
C        1.58530700     -0.21125100     -0.00278700
C        1.53357000     -1.60218000      0.08305900
C        0.30286300     -2.23181200      0.11663300
C       -0.85321700     -1.46151900      0.05930100
C       -0.77332900     -0.06476000     -0.02231200
C        0.45727800      0.58649100     -0.05403300
C       -2.13953500      0.46272700     -0.08211200
N       -2.65366000      1.63066100      0.00180600
O       -1.40348980      2.77436344      0.18304772
C       -3.09568800     -0.69013800     -0.26124900
C       -2.27172100     -1.93943600      0.08782700
H        2.44932600     -2.17654400      0.12028800
H        0.24430300     -3.31115400      0.18090600
H        0.54995700      1.65833700     -0.12897100
H       -1.29579080      2.97363344      1.13371072
H       -1.70917280      3.58931344     -0.25570728
H       -3.38914800     -0.70464300     -1.31456400
H       -3.99496100     -0.56792000      0.33996400
H       -2.43700200     -2.75956700     -0.61136200
H       -2.51300200     -2.30415600      1.08988300

B 11 12 F

--Link1--
%chk=mol_012_Z_scan_pt4.chk
%nprocshared=8
%mem=16GB
#p wB97XD/6-311+G(d,p) Geom=Check Guess=Read Stable=Opt Pop=NBO7Read Density=Current scrf=(smd,solvent=water)

mol_012_Z SP+NBO7/CMO after constrained opt at R0+0.20A  [oxime: C10=N11-O12]

1 1

$NBO CMO PRINT=2 E2PERT=0.05 BNDIDX $END

--Link1--
%chk=mol_012_Z_scan_pt5.chk
%nprocshared=8
%mem=16GB
#p wB97XD/6-311+G(d,p) opt=(ModRedundant) SCF=(Tight,XQC) NoSymm scrf=(smd,solvent=water)

mol_012_Z scan pt5 (R0+0.25A) rigid O-N displacement then constrained opt  [oxime: C10=N11-O12]

1 1
O        3.89110500     -0.26294200     -0.03972300
N        2.89653600      0.44075400     -0.04750100
O        2.93606900      1.65812700     -0.08926500
C        1.58530700     -0.21125100     -0.00278700
C        1.53357000     -1.60218000      0.08305900
C        0.30286300     -2.23181200      0.11663300
C       -0.85321700     -1.46151900      0.05930100
C       -0.77332900     -0.06476000     -0.02231200
C        0.45727800      0.58649100     -0.05403300
C       -2.13953500      0.46272700     -0.08211200
N       -2.65366000      1.63066100      0.00180600
O       -1.36680775      2.80792156      0.18836565
C       -3.09568800     -0.69013800     -0.26124900
C       -2.27172100     -1.93943600      0.08782700
H        2.44932600     -2.17654400      0.12028800
H        0.24430300     -3.31115400      0.18090600
H        0.54995700      1.65833700     -0.12897100
H       -1.25910875      3.00719156      1.13902865
H       -1.67249075      3.62287156     -0.25038935
H       -3.38914800     -0.70464300     -1.31456400
H       -3.99496100     -0.56792000      0.33996400
H       -2.43700200     -2.75956700     -0.61136200
H       -2.51300200     -2.30415600      1.08988300

B 11 12 F

--Link1--
%chk=mol_012_Z_scan_pt5.chk
%nprocshared=8
%mem=16GB
#p wB97XD/6-311+G(d,p) Geom=Check Guess=Read Stable=Opt Pop=NBO7Read Density=Current scrf=(smd,solvent=water)

mol_012_Z SP+NBO7/CMO after constrained opt at R0+0.25A  [oxime: C10=N11-O12]

1 1

$NBO CMO PRINT=2 E2PERT=0.05 BNDIDX $END

--Link1--
%chk=mol_012_Z_scan_pt6.chk
%nprocshared=8
%mem=16GB
#p wB97XD/6-311+G(d,p) opt=(ModRedundant) SCF=(Tight,XQC) NoSymm scrf=(smd,solvent=water)

mol_012_Z scan pt6 (R0+0.30A) rigid O-N displacement then constrained opt  [oxime: C10=N11-O12]

1 1
O        3.89110500     -0.26294200     -0.03972300
N        2.89653600      0.44075400     -0.04750100
O        2.93606900      1.65812700     -0.08926500
C        1.58530700     -0.21125100     -0.00278700
C        1.53357000     -1.60218000      0.08305900
C        0.30286300     -2.23181200      0.11663300
C       -0.85321700     -1.46151900      0.05930100
C       -0.77332900     -0.06476000     -0.02231200
C        0.45727800      0.58649100     -0.05403300
C       -2.13953500      0.46272700     -0.08211200
N       -2.65366000      1.63066100      0.00180600
O       -1.33012570      2.84147967      0.19368358
C       -3.09568800     -0.69013800     -0.26124900
C       -2.27172100     -1.93943600      0.08782700
H        2.44932600     -2.17654400      0.12028800
H        0.24430300     -3.31115400      0.18090600
H        0.54995700      1.65833700     -0.12897100
H       -1.22242670      3.04074967      1.14434658
H       -1.63580870      3.65642967     -0.24507142
H       -3.38914800     -0.70464300     -1.31456400
H       -3.99496100     -0.56792000      0.33996400
H       -2.43700200     -2.75956700     -0.61136200
H       -2.51300200     -2.30415600      1.08988300

B 11 12 F

--Link1--
%chk=mol_012_Z_scan_pt6.chk
%nprocshared=8
%mem=16GB
#p wB97XD/6-311+G(d,p) Geom=Check Guess=Read Stable=Opt Pop=NBO7Read Density=Current scrf=(smd,solvent=water)

mol_012_Z SP+NBO7/CMO after constrained opt at R0+0.30A  [oxime: C10=N11-O12]

1 1

$NBO CMO PRINT=2 E2PERT=0.05 BNDIDX $END


