%chk=mol_008_E_scan_pt1.chk
%nprocshared=8
%mem=16GB
#p wB97XD/6-311+G(d,p) opt=(ModRedundant) SCF=(Tight,XQC) NoSymm scrf=(smd,solvent=water)

mol_008_E scan pt1 (R0+0.05A) rigid O-N displacement then constrained opt  [oxime: C12=N13-O14]

1 1
O       -3.89962900      1.02651900      0.16351900
N       -3.38494100     -0.06390100     -0.00468900
O       -4.01888300     -1.08850900     -0.18027300
C       -1.91569900     -0.14837600      0.00494400
C       -1.33235500     -1.41387600      0.03100000
C        0.04657200     -1.50721200      0.04047800
C        0.78728200     -0.32721000      0.01823800
C        0.18906100      0.93142200     -0.01025800
C       -1.19544200      1.03382800     -0.01394400
C        1.20182500      2.03953600     -0.03491000
C        2.56416500      1.31999500     -0.03422000
C        2.24182100     -0.14287500      0.01559200
N        3.00933600     -1.16424600      0.05094300
O        4.47139465     -0.65671042      0.03958403
H       -1.95066000     -2.30044400      0.04660900
H        0.52902700     -2.47589400      0.06298000
H       -1.69476800      1.99308300     -0.03696600
H        1.07442600      2.66171800     -0.92232400
H        1.08834400      2.68486400      0.83804100
H        3.18382200      1.58030900      0.82646900
H        3.15132500      1.53074500     -0.93125600
H        5.01660165     -1.38781142      0.38574303
H        4.75701665     -0.48736842     -0.88090497

B 13 14 F

--Link1--
%chk=mol_008_E_scan_pt1.chk
%nprocshared=8
%mem=16GB
#p wB97XD/6-311+G(d,p) Geom=Check Guess=Read Stable=Opt Pop=NBO7Read Density=Current scrf=(smd,solvent=water)

mol_008_E SP+NBO7/CMO after constrained opt at R0+0.05A  [oxime: C12=N13-O14]

1 1

$NBO CMO PRINT=2 E2PERT=0.05 BNDIDX $END

--Link1--
%chk=mol_008_E_scan_pt2.chk
%nprocshared=8
%mem=16GB
#p wB97XD/6-311+G(d,p) opt=(ModRedundant) SCF=(Tight,XQC) NoSymm scrf=(smd,solvent=water)

mol_008_E scan pt2 (R0+0.10A) rigid O-N displacement then constrained opt  [oxime: C12=N13-O14]

1 1
O       -3.89962900      1.02651900      0.16351900
N       -3.38494100     -0.06390100     -0.00468900
O       -4.01888300     -1.08850900     -0.18027300
C       -1.91569900     -0.14837600      0.00494400
C       -1.33235500     -1.41387600      0.03100000
C        0.04657200     -1.50721200      0.04047800
C        0.78728200     -0.32721000      0.01823800
C        0.18906100      0.93142200     -0.01025800
C       -1.19544200      1.03382800     -0.01394400
C        1.20182500      2.03953600     -0.03491000
C        2.56416500      1.31999500     -0.03422000
C        2.24182100     -0.14287500      0.01559200
N        3.00933600     -1.16424600      0.05094300
O        4.51862830     -0.64031385      0.03921707
H       -1.95066000     -2.30044400      0.04660900
H        0.52902700     -2.47589400      0.06298000
H       -1.69476800      1.99308300     -0.03696600
H        1.07442600      2.66171800     -0.92232400
H        1.08834400      2.68486400      0.83804100
H        3.18382200      1.58030900      0.82646900
H        3.15132500      1.53074500     -0.93125600
H        5.06383530     -1.37141485      0.38537607
H        4.80425030     -0.47097185     -0.88127193

B 13 14 F

--Link1--
%chk=mol_008_E_scan_pt2.chk
%nprocshared=8
%mem=16GB
#p wB97XD/6-311+G(d,p) Geom=Check Guess=Read Stable=Opt Pop=NBO7Read Density=Current scrf=(smd,solvent=water)

mol_008_E SP+NBO7/CMO after constrained opt at R0+0.10A  [oxime: C12=N13-O14]

1 1

$NBO CMO PRINT=2 E2PERT=0.05 BNDIDX $END

--Link1--
%chk=mol_008_E_scan_pt3.chk
%nprocshared=8
%mem=16GB
#p wB97XD/6-311+G(d,p) opt=(ModRedundant) SCF=(Tight,XQC) NoSymm scrf=(smd,solvent=water)

mol_008_E scan pt3 (R0+0.15A) rigid O-N displacement then constrained opt  [oxime: C12=N13-O14]

1 1
O       -3.89962900      1.02651900      0.16351900
N       -3.38494100     -0.06390100     -0.00468900
O       -4.01888300     -1.08850900     -0.18027300
C       -1.91569900     -0.14837600      0.00494400
C       -1.33235500     -1.41387600      0.03100000
C        0.04657200     -1.50721200      0.04047800
C        0.78728200     -0.32721000      0.01823800
C        0.18906100      0.93142200     -0.01025800
C       -1.19544200      1.03382800     -0.01394400
C        1.20182500      2.03953600     -0.03491000
C        2.56416500      1.31999500     -0.03422000
C        2.24182100     -0.14287500      0.01559200
N        3.00933600     -1.16424600      0.05094300
O        4.56586195     -0.62391727      0.03885010
H       -1.95066000     -2.30044400      0.04660900
H        0.52902700     -2.47589400      0.06298000
H       -1.69476800      1.99308300     -0.03696600
H        1.07442600      2.66171800     -0.92232400
H        1.08834400      2.68486400      0.83804100
H        3.18382200      1.58030900      0.82646900
H        3.15132500      1.53074500     -0.93125600
H        5.11106895     -1.35501827      0.38500910
H        4.85148395     -0.45457527     -0.88163890

B 13 14 F

--Link1--
%chk=mol_008_E_scan_pt3.chk
%nprocshared=8
%mem=16GB
#p wB97XD/6-311+G(d,p) Geom=Check Guess=Read Stable=Opt Pop=NBO7Read Density=Current scrf=(smd,solvent=water)

mol_008_E SP+NBO7/CMO after constrained opt at R0+0.15A  [oxime: C12=N13-O14]

1 1

$NBO CMO PRINT=2 E2PERT=0.05 BNDIDX $END

--Link1--
%chk=mol_008_E_scan_pt4.chk
%nprocshared=8
%mem=16GB
#p wB97XD/6-311+G(d,p) opt=(ModRedundant) SCF=(Tight,XQC) NoSymm scrf=(smd,solvent=water)

mol_008_E scan pt4 (R0+0.20A) rigid O-N displacement then constrained opt  [oxime: C12=N13-O14]

1 1
O       -3.89962900      1.02651900      0.16351900
N       -3.38494100     -0.06390100     -0.00468900
O       -4.01888300     -1.08850900     -0.18027300
C       -1.91569900     -0.14837600      0.00494400
C       -1.33235500     -1.41387600      0.03100000
C        0.04657200     -1.50721200      0.04047800
C        0.78728200     -0.32721000      0.01823800
C        0.18906100      0.93142200     -0.01025800
C       -1.19544200      1.03382800     -0.01394400
C        1.20182500      2.03953600     -0.03491000
C        2.56416500      1.31999500     -0.03422000
C        2.24182100     -0.14287500      0.01559200
N        3.00933600     -1.16424600      0.05094300
O        4.61309560     -0.60752069      0.03848314
H       -1.95066000     -2.30044400      0.04660900
H        0.52902700     -2.47589400      0.06298000
H       -1.69476800      1.99308300     -0.03696600
H        1.07442600      2.66171800     -0.92232400
H        1.08834400      2.68486400      0.83804100
H        3.18382200      1.58030900      0.82646900
H        3.15132500      1.53074500     -0.93125600
H        5.15830260     -1.33862169      0.38464214
H        4.89871760     -0.43817869     -0.88200586

B 13 14 F

--Link1--
%chk=mol_008_E_scan_pt4.chk
%nprocshared=8
%mem=16GB
#p wB97XD/6-311+G(d,p) Geom=Check Guess=Read Stable=Opt Pop=NBO7Read Density=Current scrf=(smd,solvent=water)

mol_008_E SP+NBO7/CMO after constrained opt at R0+0.20A  [oxime: C12=N13-O14]

1 1

$NBO CMO PRINT=2 E2PERT=0.05 BNDIDX $END

--Link1--
%chk=mol_008_E_scan_pt5.chk
%nprocshared=8
%mem=16GB
#p wB97XD/6-311+G(d,p) opt=(ModRedundant) SCF=(Tight,XQC) NoSymm scrf=(smd,solvent=water)

mol_008_E scan pt5 (R0+0.25A) rigid O-N displacement then constrained opt  [oxime: C12=N13-O14]

1 1
O       -3.89962900      1.02651900      0.16351900
N       -3.38494100     -0.06390100     -0.00468900
O       -4.01888300     -1.08850900     -0.18027300
C       -1.91569900     -0.14837600      0.00494400
C       -1.33235500     -1.41387600      0.03100000
C        0.04657200     -1.50721200      0.04047800
C        0.78728200     -0.32721000      0.01823800
C        0.18906100      0.93142200     -0.01025800
C       -1.19544200      1.03382800     -0.01394400
C        1.20182500      2.03953600     -0.03491000
C        2.56416500      1.31999500     -0.03422000
C        2.24182100     -0.14287500      0.01559200
N        3.00933600     -1.16424600      0.05094300
O        4.66032924     -0.59112411      0.03811617
H       -1.95066000     -2.30044400      0.04660900
H        0.52902700     -2.47589400      0.06298000
H       -1.69476800      1.99308300     -0.03696600
H        1.07442600      2.66171800     -0.92232400
H        1.08834400      2.68486400      0.83804100
H        3.18382200      1.58030900      0.82646900
H        3.15132500      1.53074500     -0.93125600
H        5.20553624     -1.32222511      0.38427517
H        4.94595124     -0.42178211     -0.88237283

B 13 14 F

--Link1--
%chk=mol_008_E_scan_pt5.chk
%nprocshared=8
%mem=16GB
#p wB97XD/6-311+G(d,p) Geom=Check Guess=Read Stable=Opt Pop=NBO7Read Density=Current scrf=(smd,solvent=water)

mol_008_E SP+NBO7/CMO after constrained opt at R0+0.25A  [oxime: C12=N13-O14]

1 1

$NBO CMO PRINT=2 E2PERT=0.05 BNDIDX $END

--Link1--
%chk=mol_008_E_scan_pt6.chk
%nprocshared=8
%mem=16GB
#p wB97XD/6-311+G(d,p) opt=(ModRedundant) SCF=(Tight,XQC) NoSymm scrf=(smd,solvent=water)

mol_008_E scan pt6 (R0+0.30A) rigid O-N displacement then constrained opt  [oxime: C12=N13-O14]

1 1
O       -3.89962900      1.02651900      0.16351900
N       -3.38494100     -0.06390100     -0.00468900
O       -4.01888300     -1.08850900     -0.18027300
C       -1.91569900     -0.14837600      0.00494400
C       -1.33235500     -1.41387600      0.03100000
C        0.04657200     -1.50721200      0.04047800
C        0.78728200     -0.32721000      0.01823800
C        0.18906100      0.93142200     -0.01025800
C       -1.19544200      1.03382800     -0.01394400
C        1.20182500      2.03953600     -0.03491000
C        2.56416500      1.31999500     -0.03422000
C        2.24182100     -0.14287500      0.01559200
N        3.00933600     -1.16424600      0.05094300
O        4.70756289     -0.57472754      0.03774921
H       -1.95066000     -2.30044400      0.04660900
H        0.52902700     -2.47589400      0.06298000
H       -1.69476800      1.99308300     -0.03696600
H        1.07442600      2.66171800     -0.92232400
H        1.08834400      2.68486400      0.83804100
H        3.18382200      1.58030900      0.82646900
H        3.15132500      1.53074500     -0.93125600
H        5.25276989     -1.30582854      0.38390821
H        4.99318489     -0.40538554     -0.88273979

B 13 14 F

--Link1--
%chk=mol_008_E_scan_pt6.chk
%nprocshared=8
%mem=16GB
#p wB97XD/6-311+G(d,p) Geom=Check Guess=Read Stable=Opt Pop=NBO7Read Density=Current scrf=(smd,solvent=water)

mol_008_E SP+NBO7/CMO after constrained opt at R0+0.30A  [oxime: C12=N13-O14]

1 1

$NBO CMO PRINT=2 E2PERT=0.05 BNDIDX $END


