%chk=mol_008_E_opt.chk
%nprocshared=8
%mem=16GB
#p wB97XD/6-311+G(d,p) opt scrf=(smd,solvent=water)

mol_008_E opt  [oxime: C12=N13-O14]

1 1
O       -4.56010000     -0.53370000     -0.05100000
N       -3.97930000      0.54010000      0.01760000
O       -4.51010000      1.63830000      0.09540000
C       -2.49040000      0.50420000      0.00480000
C       -1.79810000      1.70880000      0.07980000
C       -0.41590000      1.70040000      0.06680000
C        0.23150000      0.46610000     -0.02280000
C       -0.48080000     -0.74150000     -0.09480000
C       -1.86360000     -0.72760000     -0.08210000
C        0.42280000     -1.93010000     -0.17700000
C        1.84620000     -1.34500000     -0.17960000
C        1.65890000      0.14190000     -0.06510000
N        2.49040000      1.10920000     -0.00620000
O        3.99940000      0.45180000     -0.08170000
H       -2.35190000      2.63180000      0.14690000
H        0.11480000      2.63910000      0.12580000
H       -2.45730000     -1.62660000     -0.13710000
H        0.26620000     -2.59650000      0.66830000
H        0.22490000     -2.51400000     -1.07270000
H        2.39690000     -1.56120000     -1.09290000
H        2.45850000     -1.69810000      0.64730000
H        4.38660000      0.93570000     -0.83840000
H        4.41050000      0.80670000      0.73190000


