%chk=mol_021_E_sp3.chk
%nprocshared=8
%mem=16GB
#p wB97XD/6-311+G(d,p) sp pop=nbo7read scrf=(smd,solvent=water)

mol_021_E_sp3  R(N-O)=1.7033A  [oxime: C12=N13-O14]

1 1
C        4.50602200      0.42197200      0.16689900
O        3.67364200     -0.71718000     -0.04476000
C        2.33401900     -0.54704300     -0.03805100
C        1.57187200     -1.70153100     -0.26780400
C        0.19997100     -1.61987500     -0.27723300
C       -0.44402800     -0.38959700     -0.05953000
C        0.31684600      0.77008800      0.14876700
C        1.70642700      0.68026200      0.15926700
C       -0.36430200      2.09831500      0.33264200
C       -1.60847300      2.16447700     -0.54446400
C       -2.58313000      1.05713300     -0.17210900
C       -1.91219500     -0.27766900      0.00076300
N       -2.49019400     -1.38473300      0.26928300
O       -4.16376600     -1.06833500      0.28243000
H        5.52796000      0.05018700      0.13188800
H        4.31137300      0.87035200      1.14465000
H        4.35812300      1.16369600     -0.62225300
H        2.07728600     -2.64277900     -0.44679500
H       -0.38231400     -2.51196500     -0.47324100
H        2.28254300      1.58361700      0.31305100
H        0.33101400      2.90347000      0.09057300
H       -0.64860900      2.21986300      1.38488100
H       -2.11192800      3.12525500     -0.42522700
H       -1.31981800      2.07054200     -1.59547600
H       -3.37093400      0.94945600     -0.91986000
H       -3.07321600      1.27771300      0.78199900
H       -4.49886700     -1.82751200      0.78837000
H       -4.46844400     -1.19382100     -0.63377700

$NBO E2PERT BNDIDX NBOSUM CMO $END


