%chk=mol_026_Z_scan_pt1.chk
%nprocshared=8
%mem=16GB
#p wB97XD/6-311+G(d,p) opt=(ModRedundant) SCF=(Tight,XQC) NoSymm scrf=(smd,solvent=water)

mol_026_Z scan pt1 (R0+0.05A) rigid O-N displacement then constrained opt  [oxime: C3=N2-O1]

1 1
O       -0.57787228      2.71166314      0.73569219
N       -1.77675700      1.90937200      0.14454900
C       -1.39101400      0.73831900     -0.19890200
C       -2.52032700     -0.10466600     -0.74815300
C       -2.27533100     -1.61153900     -0.57246100
C       -1.35701400     -1.90099900      0.61635700
C       -0.04429500     -1.20556300      0.38207500
C        1.18406800     -1.84192000      0.54182100
C        2.37161100     -1.19216000      0.23635400
C        2.31019100      0.10579100     -0.23786600
F        3.46342400      0.73335700     -0.56349400
C        1.12525400      0.78940900     -0.39323400
C       -0.05851600      0.12294900     -0.06774600
H       -0.76959928      3.65115014      0.56165419
H       -0.57361328      2.59068714      1.70473719
H       -2.61066500      0.14773800     -1.80831600
H       -3.44642200      0.20355400     -0.26100700
H       -1.81319500     -2.01809700     -1.47551200
H       -3.23668100     -2.11027400     -0.44280400
H       -1.81846700     -1.53918400      1.54233300
H       -1.19543600     -2.97390800      0.72883800
H        1.21090200     -2.86685100      0.89370300
H        3.33013700     -1.68466000      0.34672100
H        1.12925100      1.80029900     -0.77615300

B 2 1 F

--Link1--
%chk=mol_026_Z_scan_pt1.chk
%nprocshared=8
%mem=16GB
#p wB97XD/6-311+G(d,p) Geom=Check Guess=Read Stable=Opt Pop=NBO7Read Density=Current scrf=(smd,solvent=water)

mol_026_Z SP+NBO7/CMO after constrained opt at R0+0.05A  [oxime: C3=N2-O1]

1 1

$NBO CMO PRINT=2 E2PERT=0.05 BNDIDX $END

--Link1--
%chk=mol_026_Z_scan_pt2.chk
%nprocshared=8
%mem=16GB
#p wB97XD/6-311+G(d,p) opt=(ModRedundant) SCF=(Tight,XQC) NoSymm scrf=(smd,solvent=water)

mol_026_Z scan pt2 (R0+0.10A) rigid O-N displacement then constrained opt  [oxime: C3=N2-O1]

1 1
O       -0.53942156      2.73739428      0.75465137
N       -1.77675700      1.90937200      0.14454900
C       -1.39101400      0.73831900     -0.19890200
C       -2.52032700     -0.10466600     -0.74815300
C       -2.27533100     -1.61153900     -0.57246100
C       -1.35701400     -1.90099900      0.61635700
C       -0.04429500     -1.20556300      0.38207500
C        1.18406800     -1.84192000      0.54182100
C        2.37161100     -1.19216000      0.23635400
C        2.31019100      0.10579100     -0.23786600
F        3.46342400      0.73335700     -0.56349400
C        1.12525400      0.78940900     -0.39323400
C       -0.05851600      0.12294900     -0.06774600
H       -0.73114856      3.67688128      0.58061337
H       -0.53516256      2.61641828      1.72369637
H       -2.61066500      0.14773800     -1.80831600
H       -3.44642200      0.20355400     -0.26100700
H       -1.81319500     -2.01809700     -1.47551200
H       -3.23668100     -2.11027400     -0.44280400
H       -1.81846700     -1.53918400      1.54233300
H       -1.19543600     -2.97390800      0.72883800
H        1.21090200     -2.86685100      0.89370300
H        3.33013700     -1.68466000      0.34672100
H        1.12925100      1.80029900     -0.77615300

B 2 1 F

--Link1--
%chk=mol_026_Z_scan_pt2.chk
%nprocshared=8
%mem=16GB
#p wB97XD/6-311+G(d,p) Geom=Check Guess=Read Stable=Opt Pop=NBO7Read Density=Current scrf=(smd,solvent=water)

mol_026_Z SP+NBO7/CMO after constrained opt at R0+0.10A  [oxime: C3=N2-O1]

1 1

$NBO CMO PRINT=2 E2PERT=0.05 BNDIDX $END

--Link1--
%chk=mol_026_Z_scan_pt3.chk
%nprocshared=8
%mem=16GB
#p wB97XD/6-311+G(d,p) opt=(ModRedundant) SCF=(Tight,XQC) NoSymm scrf=(smd,solvent=water)

mol_026_Z scan pt3 (R0+0.15A) rigid O-N displacement then constrained opt  [oxime: C3=N2-O1]

1 1
O       -0.50097085      2.76312542      0.77361056
N       -1.77675700      1.90937200      0.14454900
C       -1.39101400      0.73831900     -0.19890200
C       -2.52032700     -0.10466600     -0.74815300
C       -2.27533100     -1.61153900     -0.57246100
C       -1.35701400     -1.90099900      0.61635700
C       -0.04429500     -1.20556300      0.38207500
C        1.18406800     -1.84192000      0.54182100
C        2.37161100     -1.19216000      0.23635400
C        2.31019100      0.10579100     -0.23786600
F        3.46342400      0.73335700     -0.56349400
C        1.12525400      0.78940900     -0.39323400
C       -0.05851600      0.12294900     -0.06774600
H       -0.69269785      3.70261242      0.59957256
H       -0.49671185      2.64214942      1.74265556
H       -2.61066500      0.14773800     -1.80831600
H       -3.44642200      0.20355400     -0.26100700
H       -1.81319500     -2.01809700     -1.47551200
H       -3.23668100     -2.11027400     -0.44280400
H       -1.81846700     -1.53918400      1.54233300
H       -1.19543600     -2.97390800      0.72883800
H        1.21090200     -2.86685100      0.89370300
H        3.33013700     -1.68466000      0.34672100
H        1.12925100      1.80029900     -0.77615300

B 2 1 F

--Link1--
%chk=mol_026_Z_scan_pt3.chk
%nprocshared=8
%mem=16GB
#p wB97XD/6-311+G(d,p) Geom=Check Guess=Read Stable=Opt Pop=NBO7Read Density=Current scrf=(smd,solvent=water)

mol_026_Z SP+NBO7/CMO after constrained opt at R0+0.15A  [oxime: C3=N2-O1]

1 1

$NBO CMO PRINT=2 E2PERT=0.05 BNDIDX $END

--Link1--
%chk=mol_026_Z_scan_pt4.chk
%nprocshared=8
%mem=16GB
#p wB97XD/6-311+G(d,p) opt=(ModRedundant) SCF=(Tight,XQC) NoSymm scrf=(smd,solvent=water)

mol_026_Z scan pt4 (R0+0.20A) rigid O-N displacement then constrained opt  [oxime: C3=N2-O1]

1 1
O       -0.46252013      2.78885656      0.79256975
N       -1.77675700      1.90937200      0.14454900
C       -1.39101400      0.73831900     -0.19890200
C       -2.52032700     -0.10466600     -0.74815300
C       -2.27533100     -1.61153900     -0.57246100
C       -1.35701400     -1.90099900      0.61635700
C       -0.04429500     -1.20556300      0.38207500
C        1.18406800     -1.84192000      0.54182100
C        2.37161100     -1.19216000      0.23635400
C        2.31019100      0.10579100     -0.23786600
F        3.46342400      0.73335700     -0.56349400
C        1.12525400      0.78940900     -0.39323400
C       -0.05851600      0.12294900     -0.06774600
H       -0.65424713      3.72834356      0.61853175
H       -0.45826113      2.66788056      1.76161475
H       -2.61066500      0.14773800     -1.80831600
H       -3.44642200      0.20355400     -0.26100700
H       -1.81319500     -2.01809700     -1.47551200
H       -3.23668100     -2.11027400     -0.44280400
H       -1.81846700     -1.53918400      1.54233300
H       -1.19543600     -2.97390800      0.72883800
H        1.21090200     -2.86685100      0.89370300
H        3.33013700     -1.68466000      0.34672100
H        1.12925100      1.80029900     -0.77615300

B 2 1 F

--Link1--
%chk=mol_026_Z_scan_pt4.chk
%nprocshared=8
%mem=16GB
#p wB97XD/6-311+G(d,p) Geom=Check Guess=Read Stable=Opt Pop=NBO7Read Density=Current scrf=(smd,solvent=water)

mol_026_Z SP+NBO7/CMO after constrained opt at R0+0.20A  [oxime: C3=N2-O1]

1 1

$NBO CMO PRINT=2 E2PERT=0.05 BNDIDX $END

--Link1--
%chk=mol_026_Z_scan_pt5.chk
%nprocshared=8
%mem=16GB
#p wB97XD/6-311+G(d,p) opt=(ModRedundant) SCF=(Tight,XQC) NoSymm scrf=(smd,solvent=water)

mol_026_Z scan pt5 (R0+0.25A) rigid O-N displacement then constrained opt  [oxime: C3=N2-O1]

1 1
O       -0.42406941      2.81458770      0.81152894
N       -1.77675700      1.90937200      0.14454900
C       -1.39101400      0.73831900     -0.19890200
C       -2.52032700     -0.10466600     -0.74815300
C       -2.27533100     -1.61153900     -0.57246100
C       -1.35701400     -1.90099900      0.61635700
C       -0.04429500     -1.20556300      0.38207500
C        1.18406800     -1.84192000      0.54182100
C        2.37161100     -1.19216000      0.23635400
C        2.31019100      0.10579100     -0.23786600
F        3.46342400      0.73335700     -0.56349400
C        1.12525400      0.78940900     -0.39323400
C       -0.05851600      0.12294900     -0.06774600
H       -0.61579641      3.75407470      0.63749094
H       -0.41981041      2.69361170      1.78057394
H       -2.61066500      0.14773800     -1.80831600
H       -3.44642200      0.20355400     -0.26100700
H       -1.81319500     -2.01809700     -1.47551200
H       -3.23668100     -2.11027400     -0.44280400
H       -1.81846700     -1.53918400      1.54233300
H       -1.19543600     -2.97390800      0.72883800
H        1.21090200     -2.86685100      0.89370300
H        3.33013700     -1.68466000      0.34672100
H        1.12925100      1.80029900     -0.77615300

B 2 1 F

--Link1--
%chk=mol_026_Z_scan_pt5.chk
%nprocshared=8
%mem=16GB
#p wB97XD/6-311+G(d,p) Geom=Check Guess=Read Stable=Opt Pop=NBO7Read Density=Current scrf=(smd,solvent=water)

mol_026_Z SP+NBO7/CMO after constrained opt at R0+0.25A  [oxime: C3=N2-O1]

1 1

$NBO CMO PRINT=2 E2PERT=0.05 BNDIDX $END

--Link1--
%chk=mol_026_Z_scan_pt6.chk
%nprocshared=8
%mem=16GB
#p wB97XD/6-311+G(d,p) opt=(ModRedundant) SCF=(Tight,XQC) NoSymm scrf=(smd,solvent=water)

mol_026_Z scan pt6 (R0+0.30A) rigid O-N displacement then constrained opt  [oxime: C3=N2-O1]

1 1
O       -0.38561869      2.84031884      0.83048812
N       -1.77675700      1.90937200      0.14454900
C       -1.39101400      0.73831900     -0.19890200
C       -2.52032700     -0.10466600     -0.74815300
C       -2.27533100     -1.61153900     -0.57246100
C       -1.35701400     -1.90099900      0.61635700
C       -0.04429500     -1.20556300      0.38207500
C        1.18406800     -1.84192000      0.54182100
C        2.37161100     -1.19216000      0.23635400
C        2.31019100      0.10579100     -0.23786600
F        3.46342400      0.73335700     -0.56349400
C        1.12525400      0.78940900     -0.39323400
C       -0.05851600      0.12294900     -0.06774600
H       -0.57734569      3.77980584      0.65645012
H       -0.38135969      2.71934284      1.79953312
H       -2.61066500      0.14773800     -1.80831600
H       -3.44642200      0.20355400     -0.26100700
H       -1.81319500     -2.01809700     -1.47551200
H       -3.23668100     -2.11027400     -0.44280400
H       -1.81846700     -1.53918400      1.54233300
H       -1.19543600     -2.97390800      0.72883800
H        1.21090200     -2.86685100      0.89370300
H        3.33013700     -1.68466000      0.34672100
H        1.12925100      1.80029900     -0.77615300

B 2 1 F

--Link1--
%chk=mol_026_Z_scan_pt6.chk
%nprocshared=8
%mem=16GB
#p wB97XD/6-311+G(d,p) Geom=Check Guess=Read Stable=Opt Pop=NBO7Read Density=Current scrf=(smd,solvent=water)

mol_026_Z SP+NBO7/CMO after constrained opt at R0+0.30A  [oxime: C3=N2-O1]

1 1

$NBO CMO PRINT=2 E2PERT=0.05 BNDIDX $END


