%chk=mol_026_Z_opt.chk
%nprocshared=8
%mem=16GB
#p wB97XD/6-311+G(d,p) opt scrf=(smd,solvent=water)

mol_026_Z opt  [oxime: C3=N2-O1]

1 1
O        2.06870000     -2.33460000     -0.71490000
N        0.41140000     -2.50250000     -0.28710000
C       -0.06610000     -1.37070000      0.02370000
C       -1.56640000     -1.63410000      0.30710000
C       -2.34790000     -0.34510000      0.50420000
C       -1.86040000      0.72290000     -0.46110000
C       -0.41970000      1.02700000     -0.18890000
C        0.06510000      2.33070000     -0.17470000
C        1.37660000      2.60780000      0.16170000
C        2.22550000      1.55940000      0.49500000
F        3.48710000      1.82730000      0.85410000
C        1.80140000      0.25060000      0.47280000
C        0.47350000     -0.02000000      0.11230000
H        2.34050000     -3.27110000     -0.68210000
H        2.03780000     -2.06920000     -1.65400000
H       -1.62660000     -2.27710000      1.18560000
H       -1.95270000     -2.21400000     -0.53070000
H       -2.22920000      0.00870000      1.52800000
H       -3.40740000     -0.54250000      0.35390000
H       -1.98570000      0.37410000     -1.48980000
H       -2.46220000      1.62360000     -0.36830000
H       -0.60290000      3.14600000     -0.41640000
H        1.74940000      3.62130000      0.18360000
H        2.48970000     -0.51820000      0.78600000


