24
mol_031_Z_opt
O        0.208200      3.151800     -0.435800
N       -1.152900      2.280200      0.039400
C       -0.844800      1.068300      0.274500
C       -2.135500      0.325300      0.549300
C       -2.228500     -0.819500     -0.449200
C       -1.044800     -1.762300     -0.296200
C        0.272800     -1.070900     -0.084900
C        1.453500     -1.803900     -0.154200
F        1.368800     -3.100400     -0.490000
C        2.695900     -1.265800      0.121400
C        2.786200      0.067800      0.488400
C        1.650600      0.849000      0.551800
C        0.397600      0.294000      0.246600
H       -0.137800      4.062000     -0.376000
H        0.336000      2.933600     -1.380600
H       -2.078600     -0.055800      1.569300
H       -2.986600      0.996600      0.495300
H       -2.275900     -0.414700     -1.460800
H       -3.155900     -1.365200     -0.289600
H       -0.976600     -2.426800     -1.156700
H       -1.213200     -2.417800      0.562400
H        3.575700     -1.889500      0.062800
H        3.749200      0.491100      0.732000
H        1.736600      1.872800      0.881100
