%chk=mol_030_E_scan_pt1.chk
%nprocshared=8
%mem=16GB
#p wB97XD/6-311+G(d,p) opt=(ModRedundant) SCF=(Tight,XQC) NoSymm scrf=(smd,solvent=water)

mol_030_E scan pt1 (R0+0.05A) rigid O-N displacement then constrained opt  [oxime: C12=N13-O14]

1 1
C       -4.20660300     -0.47260500     -0.23049300
O       -2.84069200     -0.87281700     -0.24196500
C       -1.88866100      0.08168300     -0.06179000
C       -2.17692600      1.43026500      0.10708700
C       -1.13957600      2.34538800      0.28261400
C        0.17461600      1.92794700      0.27031800
C        0.46365000      0.56635900      0.09197000
C       -0.55938600     -0.37761200     -0.04927100
C       -0.25114500     -1.84639300     -0.16155500
C        1.00882700     -2.18056800      0.62502500
C        2.18970900     -1.36012900      0.13060800
C        1.86377900      0.09771500     -0.00411200
N        2.70877100      1.02756100     -0.26873200
O        4.12714195      0.39179775     -0.34866386
H       -4.78250800     -1.38447700     -0.37727100
H       -4.41796100      0.22711900     -1.04400300
H       -4.47561700     -0.02075900      0.72859800
H       -3.20016400      1.78155900      0.11253600
H       -1.37542000      3.39297100      0.42762400
H        0.97542000      2.64269600      0.40641600
H       -1.09576100     -2.42682600      0.20901500
H       -0.11842200     -2.11662400     -1.21651300
H        0.83722900     -1.97950300      1.68700600
H        1.24916200     -3.24054100      0.52693000
H        3.05539100     -1.47058700      0.78506900
H        2.50079800     -1.69959300     -0.86463100
H        4.52082695      0.70917675     -1.18236986
H        4.65998195      0.76406375      0.37968314

B 13 14 F

--Link1--
%chk=mol_030_E_scan_pt1.chk
%nprocshared=8
%mem=16GB
#p wB97XD/6-311+G(d,p) Geom=Check Guess=Read Stable=Opt Pop=NBO7Read Density=Current scrf=(smd,solvent=water)

mol_030_E SP+NBO7/CMO after constrained opt at R0+0.05A  [oxime: C12=N13-O14]

1 1

$NBO CMO PRINT=2 E2PERT=0.05 BNDIDX $END

--Link1--
%chk=mol_030_E_scan_pt2.chk
%nprocshared=8
%mem=16GB
#p wB97XD/6-311+G(d,p) opt=(ModRedundant) SCF=(Tight,XQC) NoSymm scrf=(smd,solvent=water)

mol_030_E scan pt2 (R0+0.10A) rigid O-N displacement then constrained opt  [oxime: C12=N13-O14]

1 1
C       -4.20660300     -0.47260500     -0.23049300
O       -2.84069200     -0.87281700     -0.24196500
C       -1.88866100      0.08168300     -0.06179000
C       -2.17692600      1.43026500      0.10708700
C       -1.13957600      2.34538800      0.28261400
C        0.17461600      1.92794700      0.27031800
C        0.46365000      0.56635900      0.09197000
C       -0.55938600     -0.37761200     -0.04927100
C       -0.25114500     -1.84639300     -0.16155500
C        1.00882700     -2.18056800      0.62502500
C        2.18970900     -1.36012900      0.13060800
C        1.86377900      0.09771500     -0.00411200
N        2.70877100      1.02756100     -0.26873200
O        4.17270791      0.37137351     -0.35123171
H       -4.78250800     -1.38447700     -0.37727100
H       -4.41796100      0.22711900     -1.04400300
H       -4.47561700     -0.02075900      0.72859800
H       -3.20016400      1.78155900      0.11253600
H       -1.37542000      3.39297100      0.42762400
H        0.97542000      2.64269600      0.40641600
H       -1.09576100     -2.42682600      0.20901500
H       -0.11842200     -2.11662400     -1.21651300
H        0.83722900     -1.97950300      1.68700600
H        1.24916200     -3.24054100      0.52693000
H        3.05539100     -1.47058700      0.78506900
H        2.50079800     -1.69959300     -0.86463100
H        4.56639291      0.68875251     -1.18493771
H        4.70554791      0.74363951      0.37711529

B 13 14 F

--Link1--
%chk=mol_030_E_scan_pt2.chk
%nprocshared=8
%mem=16GB
#p wB97XD/6-311+G(d,p) Geom=Check Guess=Read Stable=Opt Pop=NBO7Read Density=Current scrf=(smd,solvent=water)

mol_030_E SP+NBO7/CMO after constrained opt at R0+0.10A  [oxime: C12=N13-O14]

1 1

$NBO CMO PRINT=2 E2PERT=0.05 BNDIDX $END

--Link1--
%chk=mol_030_E_scan_pt3.chk
%nprocshared=8
%mem=16GB
#p wB97XD/6-311+G(d,p) opt=(ModRedundant) SCF=(Tight,XQC) NoSymm scrf=(smd,solvent=water)

mol_030_E scan pt3 (R0+0.15A) rigid O-N displacement then constrained opt  [oxime: C12=N13-O14]

1 1
C       -4.20660300     -0.47260500     -0.23049300
O       -2.84069200     -0.87281700     -0.24196500
C       -1.88866100      0.08168300     -0.06179000
C       -2.17692600      1.43026500      0.10708700
C       -1.13957600      2.34538800      0.28261400
C        0.17461600      1.92794700      0.27031800
C        0.46365000      0.56635900      0.09197000
C       -0.55938600     -0.37761200     -0.04927100
C       -0.25114500     -1.84639300     -0.16155500
C        1.00882700     -2.18056800      0.62502500
C        2.18970900     -1.36012900      0.13060800
C        1.86377900      0.09771500     -0.00411200
N        2.70877100      1.02756100     -0.26873200
O        4.21827386      0.35094926     -0.35379957
H       -4.78250800     -1.38447700     -0.37727100
H       -4.41796100      0.22711900     -1.04400300
H       -4.47561700     -0.02075900      0.72859800
H       -3.20016400      1.78155900      0.11253600
H       -1.37542000      3.39297100      0.42762400
H        0.97542000      2.64269600      0.40641600
H       -1.09576100     -2.42682600      0.20901500
H       -0.11842200     -2.11662400     -1.21651300
H        0.83722900     -1.97950300      1.68700600
H        1.24916200     -3.24054100      0.52693000
H        3.05539100     -1.47058700      0.78506900
H        2.50079800     -1.69959300     -0.86463100
H        4.61195886      0.66832826     -1.18750557
H        4.75111386      0.72321526      0.37454743

B 13 14 F

--Link1--
%chk=mol_030_E_scan_pt3.chk
%nprocshared=8
%mem=16GB
#p wB97XD/6-311+G(d,p) Geom=Check Guess=Read Stable=Opt Pop=NBO7Read Density=Current scrf=(smd,solvent=water)

mol_030_E SP+NBO7/CMO after constrained opt at R0+0.15A  [oxime: C12=N13-O14]

1 1

$NBO CMO PRINT=2 E2PERT=0.05 BNDIDX $END

--Link1--
%chk=mol_030_E_scan_pt4.chk
%nprocshared=8
%mem=16GB
#p wB97XD/6-311+G(d,p) opt=(ModRedundant) SCF=(Tight,XQC) NoSymm scrf=(smd,solvent=water)

mol_030_E scan pt4 (R0+0.20A) rigid O-N displacement then constrained opt  [oxime: C12=N13-O14]

1 1
C       -4.20660300     -0.47260500     -0.23049300
O       -2.84069200     -0.87281700     -0.24196500
C       -1.88866100      0.08168300     -0.06179000
C       -2.17692600      1.43026500      0.10708700
C       -1.13957600      2.34538800      0.28261400
C        0.17461600      1.92794700      0.27031800
C        0.46365000      0.56635900      0.09197000
C       -0.55938600     -0.37761200     -0.04927100
C       -0.25114500     -1.84639300     -0.16155500
C        1.00882700     -2.18056800      0.62502500
C        2.18970900     -1.36012900      0.13060800
C        1.86377900      0.09771500     -0.00411200
N        2.70877100      1.02756100     -0.26873200
O        4.26383982      0.33052501     -0.35636742
H       -4.78250800     -1.38447700     -0.37727100
H       -4.41796100      0.22711900     -1.04400300
H       -4.47561700     -0.02075900      0.72859800
H       -3.20016400      1.78155900      0.11253600
H       -1.37542000      3.39297100      0.42762400
H        0.97542000      2.64269600      0.40641600
H       -1.09576100     -2.42682600      0.20901500
H       -0.11842200     -2.11662400     -1.21651300
H        0.83722900     -1.97950300      1.68700600
H        1.24916200     -3.24054100      0.52693000
H        3.05539100     -1.47058700      0.78506900
H        2.50079800     -1.69959300     -0.86463100
H        4.65752482      0.64790401     -1.19007342
H        4.79667982      0.70279101      0.37197958

B 13 14 F

--Link1--
%chk=mol_030_E_scan_pt4.chk
%nprocshared=8
%mem=16GB
#p wB97XD/6-311+G(d,p) Geom=Check Guess=Read Stable=Opt Pop=NBO7Read Density=Current scrf=(smd,solvent=water)

mol_030_E SP+NBO7/CMO after constrained opt at R0+0.20A  [oxime: C12=N13-O14]

1 1

$NBO CMO PRINT=2 E2PERT=0.05 BNDIDX $END

--Link1--
%chk=mol_030_E_scan_pt5.chk
%nprocshared=8
%mem=16GB
#p wB97XD/6-311+G(d,p) opt=(ModRedundant) SCF=(Tight,XQC) NoSymm scrf=(smd,solvent=water)

mol_030_E scan pt5 (R0+0.25A) rigid O-N displacement then constrained opt  [oxime: C12=N13-O14]

1 1
C       -4.20660300     -0.47260500     -0.23049300
O       -2.84069200     -0.87281700     -0.24196500
C       -1.88866100      0.08168300     -0.06179000
C       -2.17692600      1.43026500      0.10708700
C       -1.13957600      2.34538800      0.28261400
C        0.17461600      1.92794700      0.27031800
C        0.46365000      0.56635900      0.09197000
C       -0.55938600     -0.37761200     -0.04927100
C       -0.25114500     -1.84639300     -0.16155500
C        1.00882700     -2.18056800      0.62502500
C        2.18970900     -1.36012900      0.13060800
C        1.86377900      0.09771500     -0.00411200
N        2.70877100      1.02756100     -0.26873200
O        4.30940577      0.31010076     -0.35893528
H       -4.78250800     -1.38447700     -0.37727100
H       -4.41796100      0.22711900     -1.04400300
H       -4.47561700     -0.02075900      0.72859800
H       -3.20016400      1.78155900      0.11253600
H       -1.37542000      3.39297100      0.42762400
H        0.97542000      2.64269600      0.40641600
H       -1.09576100     -2.42682600      0.20901500
H       -0.11842200     -2.11662400     -1.21651300
H        0.83722900     -1.97950300      1.68700600
H        1.24916200     -3.24054100      0.52693000
H        3.05539100     -1.47058700      0.78506900
H        2.50079800     -1.69959300     -0.86463100
H        4.70309077      0.62747976     -1.19264128
H        4.84224577      0.68236676      0.36941172

B 13 14 F

--Link1--
%chk=mol_030_E_scan_pt5.chk
%nprocshared=8
%mem=16GB
#p wB97XD/6-311+G(d,p) Geom=Check Guess=Read Stable=Opt Pop=NBO7Read Density=Current scrf=(smd,solvent=water)

mol_030_E SP+NBO7/CMO after constrained opt at R0+0.25A  [oxime: C12=N13-O14]

1 1

$NBO CMO PRINT=2 E2PERT=0.05 BNDIDX $END

--Link1--
%chk=mol_030_E_scan_pt6.chk
%nprocshared=8
%mem=16GB
#p wB97XD/6-311+G(d,p) opt=(ModRedundant) SCF=(Tight,XQC) NoSymm scrf=(smd,solvent=water)

mol_030_E scan pt6 (R0+0.30A) rigid O-N displacement then constrained opt  [oxime: C12=N13-O14]

1 1
C       -4.20660300     -0.47260500     -0.23049300
O       -2.84069200     -0.87281700     -0.24196500
C       -1.88866100      0.08168300     -0.06179000
C       -2.17692600      1.43026500      0.10708700
C       -1.13957600      2.34538800      0.28261400
C        0.17461600      1.92794700      0.27031800
C        0.46365000      0.56635900      0.09197000
C       -0.55938600     -0.37761200     -0.04927100
C       -0.25114500     -1.84639300     -0.16155500
C        1.00882700     -2.18056800      0.62502500
C        2.18970900     -1.36012900      0.13060800
C        1.86377900      0.09771500     -0.00411200
N        2.70877100      1.02756100     -0.26873200
O        4.35497173      0.28967652     -0.36150313
H       -4.78250800     -1.38447700     -0.37727100
H       -4.41796100      0.22711900     -1.04400300
H       -4.47561700     -0.02075900      0.72859800
H       -3.20016400      1.78155900      0.11253600
H       -1.37542000      3.39297100      0.42762400
H        0.97542000      2.64269600      0.40641600
H       -1.09576100     -2.42682600      0.20901500
H       -0.11842200     -2.11662400     -1.21651300
H        0.83722900     -1.97950300      1.68700600
H        1.24916200     -3.24054100      0.52693000
H        3.05539100     -1.47058700      0.78506900
H        2.50079800     -1.69959300     -0.86463100
H        4.74865673      0.60705552     -1.19520913
H        4.88781173      0.66194252      0.36684387

B 13 14 F

--Link1--
%chk=mol_030_E_scan_pt6.chk
%nprocshared=8
%mem=16GB
#p wB97XD/6-311+G(d,p) Geom=Check Guess=Read Stable=Opt Pop=NBO7Read Density=Current scrf=(smd,solvent=water)

mol_030_E SP+NBO7/CMO after constrained opt at R0+0.30A  [oxime: C12=N13-O14]

1 1

$NBO CMO PRINT=2 E2PERT=0.05 BNDIDX $END


