%chk=mol_018_E.chk
%nprocshared=8
%mem=16GB
#p wB97XD/6-311+G(d,p) sp pop=nbo7read

mol_018_E  [oxime: C12=N13-O14]

1 1
O       -2.66530000     -2.29910000     -0.34520000
N       -3.07680000     -1.14460000     -0.25550000
O       -4.24990000     -0.80590000     -0.24750000
C       -2.05570000     -0.07470000     -0.14820000
C       -2.48660000      1.24440000     -0.07610000
C       -1.57340000      2.28750000      0.02490000
C       -0.21480000      2.02900000      0.05680000
C        0.20130000      0.69860000     -0.01530000
C       -0.70000000     -0.37410000     -0.11930000
C        0.01170000     -1.69640000     -0.18140000
C        1.50660000     -1.34590000     -0.09630000
C        1.55790000      0.14840000      0.00010000
N        2.53560000      0.96370000      0.08860000
O        3.91880000      0.03340000      0.08260000
H       -3.54730000      1.44480000     -0.09980000
H       -1.94190000      3.30140000      0.07820000
H        0.48730000      2.84780000      0.13560000
H       -0.23230000     -2.22410000     -1.09930000
H       -0.30340000     -2.34480000      0.63150000
H        1.99620000     -1.77980000      0.77380000
H        2.07060000     -1.67250000     -0.96810000
H        4.41040000      0.43040000     -0.66380000
H        4.35140000      0.33270000      0.90700000
$NBO E2PERT BNDIDX NBOSUM CMO $END


