%chk=mol_024_Z_scan_pt1.chk
%nprocshared=6
%mem=16GB
#p wB97XD/6-311+G(d,p) opt=(ModRedundant) SCF=(Tight,XQC) NoSymm scrf=(smd,solvent=water)

mol_024_Z scan pt1 (R0+0.05A) rigid O-N displacement then constrained opt  [oxime: C8=N9-O10]

1 1
C        3.65727000      0.63366000      0.56159300
C        2.33257300      0.00953000      0.21660200
C        2.26919400     -1.30194300     -0.26658300
C        1.05569000     -1.90699700     -0.55709800
C       -0.14214900     -1.21813900     -0.38311700
C       -0.08144200      0.10915200      0.06094200
C        1.14388100      0.71134100      0.36741300
C       -1.37764700      0.78951300      0.20852200
N       -1.71235200      1.97662700     -0.13569100
O       -0.48615284      2.71076651     -0.76511268
C       -2.54043600      0.00803500      0.78059400
C       -2.37922600     -1.51013800      0.59921400
C       -1.49041200     -1.84807100     -0.59944900
H        4.31887100      0.64714700     -0.30904400
H        3.53203800      1.65971500      0.91213000
H        4.16244800      0.06346700      1.34623900
H        3.18998800     -1.86133200     -0.40071700
H        1.03154700     -2.93308400     -0.90833000
H        1.16787100      1.72519700      0.74675500
H       -0.63689584      3.66241151     -0.62127268
H       -0.49792384      2.55933551     -1.72960968
H       -2.59603000      0.26221700      1.84271500
H       -3.45901300      0.36535600      0.31310200
H       -1.92985400     -1.94274300      1.49665600
H       -3.36778600     -1.95594400      0.48043700
H       -1.94528100     -1.46648500     -1.52098500
H       -1.38546700     -2.92837700     -0.71065800

B 9 10 F

--Link1--
%chk=mol_024_Z_scan_pt1.chk
%nprocshared=6
%mem=16GB
#p wB97XD/6-311+G(d,p) Geom=Check Guess=Read Stable=Opt Pop=NBO7Read Density=Current scrf=(smd,solvent=water)

mol_024_Z SP+NBO7/CMO after constrained opt at R0+0.05A  [oxime: C8=N9-O10]

1 1

$NBO CMO PRINT=2 E2PERT=0.05 BNDIDX $END

--Link1--
%chk=mol_024_Z_scan_pt2.chk
%nprocshared=6
%mem=16GB
#p wB97XD/6-311+G(d,p) opt=(ModRedundant) SCF=(Tight,XQC) NoSymm scrf=(smd,solvent=water)

mol_024_Z scan pt2 (R0+0.10A) rigid O-N displacement then constrained opt  [oxime: C8=N9-O10]

1 1
C        3.65727000      0.63366000      0.56159300
C        2.33257300      0.00953000      0.21660200
C        2.26919400     -1.30194300     -0.26658300
C        1.05569000     -1.90699700     -0.55709800
C       -0.14214900     -1.21813900     -0.38311700
C       -0.08144200      0.10915200      0.06094200
C        1.14388100      0.71134100      0.36741300
C       -1.37764700      0.78951300      0.20852200
N       -1.71235200      1.97662700     -0.13569100
O       -0.44689267      2.73427202     -0.78526536
C       -2.54043600      0.00803500      0.78059400
C       -2.37922600     -1.51013800      0.59921400
C       -1.49041200     -1.84807100     -0.59944900
H        4.31887100      0.64714700     -0.30904400
H        3.53203800      1.65971500      0.91213000
H        4.16244800      0.06346700      1.34623900
H        3.18998800     -1.86133200     -0.40071700
H        1.03154700     -2.93308400     -0.90833000
H        1.16787100      1.72519700      0.74675500
H       -0.59763567      3.68591702     -0.64142536
H       -0.45866367      2.58284102     -1.74976236
H       -2.59603000      0.26221700      1.84271500
H       -3.45901300      0.36535600      0.31310200
H       -1.92985400     -1.94274300      1.49665600
H       -3.36778600     -1.95594400      0.48043700
H       -1.94528100     -1.46648500     -1.52098500
H       -1.38546700     -2.92837700     -0.71065800

B 9 10 F

--Link1--
%chk=mol_024_Z_scan_pt2.chk
%nprocshared=6
%mem=16GB
#p wB97XD/6-311+G(d,p) Geom=Check Guess=Read Stable=Opt Pop=NBO7Read Density=Current scrf=(smd,solvent=water)

mol_024_Z SP+NBO7/CMO after constrained opt at R0+0.10A  [oxime: C8=N9-O10]

1 1

$NBO CMO PRINT=2 E2PERT=0.05 BNDIDX $END

--Link1--
%chk=mol_024_Z_scan_pt3.chk
%nprocshared=6
%mem=16GB
#p wB97XD/6-311+G(d,p) opt=(ModRedundant) SCF=(Tight,XQC) NoSymm scrf=(smd,solvent=water)

mol_024_Z scan pt3 (R0+0.15A) rigid O-N displacement then constrained opt  [oxime: C8=N9-O10]

1 1
C        3.65727000      0.63366000      0.56159300
C        2.33257300      0.00953000      0.21660200
C        2.26919400     -1.30194300     -0.26658300
C        1.05569000     -1.90699700     -0.55709800
C       -0.14214900     -1.21813900     -0.38311700
C       -0.08144200      0.10915200      0.06094200
C        1.14388100      0.71134100      0.36741300
C       -1.37764700      0.78951300      0.20852200
N       -1.71235200      1.97662700     -0.13569100
O       -0.40763251      2.75777753     -0.80541804
C       -2.54043600      0.00803500      0.78059400
C       -2.37922600     -1.51013800      0.59921400
C       -1.49041200     -1.84807100     -0.59944900
H        4.31887100      0.64714700     -0.30904400
H        3.53203800      1.65971500      0.91213000
H        4.16244800      0.06346700      1.34623900
H        3.18998800     -1.86133200     -0.40071700
H        1.03154700     -2.93308400     -0.90833000
H        1.16787100      1.72519700      0.74675500
H       -0.55837551      3.70942253     -0.66157804
H       -0.41940351      2.60634653     -1.76991504
H       -2.59603000      0.26221700      1.84271500
H       -3.45901300      0.36535600      0.31310200
H       -1.92985400     -1.94274300      1.49665600
H       -3.36778600     -1.95594400      0.48043700
H       -1.94528100     -1.46648500     -1.52098500
H       -1.38546700     -2.92837700     -0.71065800

B 9 10 F

--Link1--
%chk=mol_024_Z_scan_pt3.chk
%nprocshared=6
%mem=16GB
#p wB97XD/6-311+G(d,p) Geom=Check Guess=Read Stable=Opt Pop=NBO7Read Density=Current scrf=(smd,solvent=water)

mol_024_Z SP+NBO7/CMO after constrained opt at R0+0.15A  [oxime: C8=N9-O10]

1 1

$NBO CMO PRINT=2 E2PERT=0.05 BNDIDX $END

--Link1--
%chk=mol_024_Z_scan_pt4.chk
%nprocshared=6
%mem=16GB
#p wB97XD/6-311+G(d,p) opt=(ModRedundant) SCF=(Tight,XQC) NoSymm scrf=(smd,solvent=water)

mol_024_Z scan pt4 (R0+0.20A) rigid O-N displacement then constrained opt  [oxime: C8=N9-O10]

1 1
C        3.65727000      0.63366000      0.56159300
C        2.33257300      0.00953000      0.21660200
C        2.26919400     -1.30194300     -0.26658300
C        1.05569000     -1.90699700     -0.55709800
C       -0.14214900     -1.21813900     -0.38311700
C       -0.08144200      0.10915200      0.06094200
C        1.14388100      0.71134100      0.36741300
C       -1.37764700      0.78951300      0.20852200
N       -1.71235200      1.97662700     -0.13569100
O       -0.36837234      2.78128304     -0.82557072
C       -2.54043600      0.00803500      0.78059400
C       -2.37922600     -1.51013800      0.59921400
C       -1.49041200     -1.84807100     -0.59944900
H        4.31887100      0.64714700     -0.30904400
H        3.53203800      1.65971500      0.91213000
H        4.16244800      0.06346700      1.34623900
H        3.18998800     -1.86133200     -0.40071700
H        1.03154700     -2.93308400     -0.90833000
H        1.16787100      1.72519700      0.74675500
H       -0.51911534      3.73292804     -0.68173072
H       -0.38014334      2.62985204     -1.79006772
H       -2.59603000      0.26221700      1.84271500
H       -3.45901300      0.36535600      0.31310200
H       -1.92985400     -1.94274300      1.49665600
H       -3.36778600     -1.95594400      0.48043700
H       -1.94528100     -1.46648500     -1.52098500
H       -1.38546700     -2.92837700     -0.71065800

B 9 10 F

--Link1--
%chk=mol_024_Z_scan_pt4.chk
%nprocshared=6
%mem=16GB
#p wB97XD/6-311+G(d,p) Geom=Check Guess=Read Stable=Opt Pop=NBO7Read Density=Current scrf=(smd,solvent=water)

mol_024_Z SP+NBO7/CMO after constrained opt at R0+0.20A  [oxime: C8=N9-O10]

1 1

$NBO CMO PRINT=2 E2PERT=0.05 BNDIDX $END

--Link1--
%chk=mol_024_Z_scan_pt5.chk
%nprocshared=6
%mem=16GB
#p wB97XD/6-311+G(d,p) opt=(ModRedundant) SCF=(Tight,XQC) NoSymm scrf=(smd,solvent=water)

mol_024_Z scan pt5 (R0+0.25A) rigid O-N displacement then constrained opt  [oxime: C8=N9-O10]

1 1
C        3.65727000      0.63366000      0.56159300
C        2.33257300      0.00953000      0.21660200
C        2.26919400     -1.30194300     -0.26658300
C        1.05569000     -1.90699700     -0.55709800
C       -0.14214900     -1.21813900     -0.38311700
C       -0.08144200      0.10915200      0.06094200
C        1.14388100      0.71134100      0.36741300
C       -1.37764700      0.78951300      0.20852200
N       -1.71235200      1.97662700     -0.13569100
O       -0.32911218      2.80478855     -0.84572340
C       -2.54043600      0.00803500      0.78059400
C       -2.37922600     -1.51013800      0.59921400
C       -1.49041200     -1.84807100     -0.59944900
H        4.31887100      0.64714700     -0.30904400
H        3.53203800      1.65971500      0.91213000
H        4.16244800      0.06346700      1.34623900
H        3.18998800     -1.86133200     -0.40071700
H        1.03154700     -2.93308400     -0.90833000
H        1.16787100      1.72519700      0.74675500
H       -0.47985518      3.75643355     -0.70188340
H       -0.34088318      2.65335755     -1.81022040
H       -2.59603000      0.26221700      1.84271500
H       -3.45901300      0.36535600      0.31310200
H       -1.92985400     -1.94274300      1.49665600
H       -3.36778600     -1.95594400      0.48043700
H       -1.94528100     -1.46648500     -1.52098500
H       -1.38546700     -2.92837700     -0.71065800

B 9 10 F

--Link1--
%chk=mol_024_Z_scan_pt5.chk
%nprocshared=6
%mem=16GB
#p wB97XD/6-311+G(d,p) Geom=Check Guess=Read Stable=Opt Pop=NBO7Read Density=Current scrf=(smd,solvent=water)

mol_024_Z SP+NBO7/CMO after constrained opt at R0+0.25A  [oxime: C8=N9-O10]

1 1

$NBO CMO PRINT=2 E2PERT=0.05 BNDIDX $END

--Link1--
%chk=mol_024_Z_scan_pt6.chk
%nprocshared=6
%mem=16GB
#p wB97XD/6-311+G(d,p) opt=(ModRedundant) SCF=(Tight,XQC) NoSymm scrf=(smd,solvent=water)

mol_024_Z scan pt6 (R0+0.30A) rigid O-N displacement then constrained opt  [oxime: C8=N9-O10]

1 1
C        3.65727000      0.63366000      0.56159300
C        2.33257300      0.00953000      0.21660200
C        2.26919400     -1.30194300     -0.26658300
C        1.05569000     -1.90699700     -0.55709800
C       -0.14214900     -1.21813900     -0.38311700
C       -0.08144200      0.10915200      0.06094200
C        1.14388100      0.71134100      0.36741300
C       -1.37764700      0.78951300      0.20852200
N       -1.71235200      1.97662700     -0.13569100
O       -0.28985202      2.82829406     -0.86587608
C       -2.54043600      0.00803500      0.78059400
C       -2.37922600     -1.51013800      0.59921400
C       -1.49041200     -1.84807100     -0.59944900
H        4.31887100      0.64714700     -0.30904400
H        3.53203800      1.65971500      0.91213000
H        4.16244800      0.06346700      1.34623900
H        3.18998800     -1.86133200     -0.40071700
H        1.03154700     -2.93308400     -0.90833000
H        1.16787100      1.72519700      0.74675500
H       -0.44059502      3.77993906     -0.72203608
H       -0.30162302      2.67686306     -1.83037308
H       -2.59603000      0.26221700      1.84271500
H       -3.45901300      0.36535600      0.31310200
H       -1.92985400     -1.94274300      1.49665600
H       -3.36778600     -1.95594400      0.48043700
H       -1.94528100     -1.46648500     -1.52098500
H       -1.38546700     -2.92837700     -0.71065800

B 9 10 F

--Link1--
%chk=mol_024_Z_scan_pt6.chk
%nprocshared=6
%mem=16GB
#p wB97XD/6-311+G(d,p) Geom=Check Guess=Read Stable=Opt Pop=NBO7Read Density=Current scrf=(smd,solvent=water)

mol_024_Z SP+NBO7/CMO after constrained opt at R0+0.30A  [oxime: C8=N9-O10]

1 1

$NBO CMO PRINT=2 E2PERT=0.05 BNDIDX $END


