%chk=mol_006_E_sp2.chk
%nprocshared=8
%mem=16GB
#p wB97XD/6-311+G(d,p) sp pop=nbo7read scrf=(smd,solvent=water)

mol_006_E_sp2  R(N-O)=1.6108A  [oxime: C10=N11-O12]

1 1
C        4.10505000     -0.08721300     -0.00299000
C        2.60466700     -0.15596500      0.00022000
C        1.96697600     -1.41165500      0.00239700
C        0.59099100     -1.51941900      0.00359000
C       -0.16228100     -0.34163600      0.00270400
C        0.44721200      0.91214200      0.00119300
C        1.83479400      1.00390400      0.00000500
C       -0.55993900      2.02602600      0.00055400
C       -1.92592300      1.31527900     -0.00340200
C       -1.60963100     -0.15263000     -0.00063800
N       -2.37944100     -1.17348300     -0.00137000
O       -3.88026400     -0.58859600     -0.01044400
H        4.45639600      0.94561000      0.00370200
H        4.50976200     -0.58544700     -0.88854600
H        4.51483400     -0.59912800      0.87227000
H        2.57556100     -2.30970700      0.00274400
H        0.11247500     -2.49152200      0.00480200
H        2.31792900      1.97543700     -0.00150500
H       -0.43713100      2.66262600     -0.87790700
H       -0.44094600      2.65939500      0.88191900
H       -2.52470400      1.54924500     -0.88547200
H       -2.53157800      1.55242100      0.87312600
H       -4.32688000     -1.06376500     -0.73364600
H       -4.27901600     -0.90500200      0.81985000

$NBO E2PERT BNDIDX NBOSUM CMO $END


