24
mol_013_Z_opt
C       -2.362500      0.053700     -0.897000
C       -1.233100     -0.580400     -0.135400
C       -1.437700     -1.823700      0.448900
C       -0.401500     -2.540000      1.036000
C        0.899500     -2.060500      1.040600
C        1.146400     -0.829400      0.469100
C        0.074400     -0.061600     -0.042700
C        0.643200      1.215700     -0.448500
N        0.304600      2.433500     -0.593800
O       -1.290300      2.634600     -0.112700
C        2.150200      1.048200     -0.613300
C        2.464400     -0.138700      0.312500
H       -2.002700      0.688600     -1.703500
H       -2.990300     -0.716200     -1.336200
H       -3.008600      0.653500     -0.255800
H       -2.427600     -2.257000      0.420000
H       -0.612000     -3.501400      1.481100
H        1.701100     -2.643600      1.473000
H       -1.246600      2.766100      0.855500
H       -1.485400      3.494500     -0.532000
H        2.330700      0.790200     -1.655800
H        2.718200      1.946900     -0.396900
H        2.828200      0.215500      1.278200
H        3.237300     -0.788500     -0.091300
