24
mol_013_E_opt
C       -1.455300      2.170700     -0.447800
C       -1.420700      0.746500      0.019600
C       -2.577700      0.109400      0.448500
C       -2.573800     -1.212800      0.888400
C       -1.408300     -1.967300      0.922400
C       -0.234800     -1.372500      0.505000
C       -0.251000     -0.037800      0.061900
C        1.110300      0.317200     -0.314200
N        1.342400      1.495600     -0.756700
O        2.977900      1.561700     -1.090600
C        2.033700     -0.852300     -0.092300
C        1.137500     -1.971100      0.448400
H       -1.117800      2.270200     -1.477700
H       -2.466300      2.561400     -0.390100
H       -0.815100      2.813200      0.153800
H       -3.511400      0.654100      0.441500
H       -3.503900     -1.661000      1.211400
H       -1.426600     -2.992000      1.267300
H        3.239200      2.345800     -0.570200
H        2.963500      1.829700     -2.029700
H        2.520500     -1.105700     -1.032300
H        2.820500     -0.556400      0.599300
H        1.461100     -2.301700      1.432300
H        1.156100     -2.845000     -0.198500
