%chk=mol_026_E_scan_pt1.chk
%nprocshared=8
%mem=16GB
#p wB97XD/6-311+G(d,p) opt=(ModRedundant) SCF=(Tight,XQC) NoSymm scrf=(smd,solvent=water)

mol_026_E scan pt1 (R0+0.05A) rigid O-N displacement then constrained opt  [oxime: C3=N2-O1]

1 1
O        3.10819127     -1.91936592     -0.19446001
N        1.57483200     -1.70003500     -0.22039300
C        1.33047900     -0.45736000     -0.01629600
C        2.36349600      0.61865100      0.15059100
C        1.77034000      1.95669100      0.57057600
C        0.56943000      2.30360400     -0.29885300
C       -0.47830100      1.22951600     -0.18597800
C       -1.83708900      1.54492500     -0.22755900
C       -2.81079400      0.56786500     -0.10029900
C       -2.40454900     -0.74378000      0.07793800
F       -3.34862500     -1.70172100      0.22046100
C       -1.08152700     -1.11037000      0.12549800
C       -0.10826600     -0.11272400     -0.01705400
H        3.26364527     -2.75213392     -0.67685801
H        3.40074127     -2.06669792      0.72733299
H        2.86420200      0.71132100     -0.82084500
H        3.11994200      0.28469100      0.86255800
H        1.46241700      1.91265500      1.61975600
H        2.54160900      2.72393300      0.48587000
H        0.13857300      3.26328300     -0.00843400
H        0.88771800      2.39517900     -1.34446500
H       -2.13494000      2.57997600     -0.35167000
H       -3.86572800      0.81309600     -0.12260500
H       -0.81434000     -2.14754200      0.28063400

B 2 1 F

--Link1--
%chk=mol_026_E_scan_pt1.chk
%nprocshared=8
%mem=16GB
#p wB97XD/6-311+G(d,p) Geom=Check Guess=Read Stable=Opt Pop=NBO7Read Density=Current scrf=(smd,solvent=water)

mol_026_E SP+NBO7/CMO after constrained opt at R0+0.05A  [oxime: C3=N2-O1]

1 1

$NBO CMO PRINT=2 E2PERT=0.05 BNDIDX $END

--Link1--
%chk=mol_026_E_scan_pt2.chk
%nprocshared=8
%mem=16GB
#p wB97XD/6-311+G(d,p) opt=(ModRedundant) SCF=(Tight,XQC) NoSymm scrf=(smd,solvent=water)

mol_026_E scan pt2 (R0+0.10A) rigid O-N displacement then constrained opt  [oxime: C3=N2-O1]

1 1
O        3.15768055     -1.92644484     -0.19362302
N        1.57483200     -1.70003500     -0.22039300
C        1.33047900     -0.45736000     -0.01629600
C        2.36349600      0.61865100      0.15059100
C        1.77034000      1.95669100      0.57057600
C        0.56943000      2.30360400     -0.29885300
C       -0.47830100      1.22951600     -0.18597800
C       -1.83708900      1.54492500     -0.22755900
C       -2.81079400      0.56786500     -0.10029900
C       -2.40454900     -0.74378000      0.07793800
F       -3.34862500     -1.70172100      0.22046100
C       -1.08152700     -1.11037000      0.12549800
C       -0.10826600     -0.11272400     -0.01705400
H        3.31313455     -2.75921284     -0.67602102
H        3.45023055     -2.07377684      0.72816998
H        2.86420200      0.71132100     -0.82084500
H        3.11994200      0.28469100      0.86255800
H        1.46241700      1.91265500      1.61975600
H        2.54160900      2.72393300      0.48587000
H        0.13857300      3.26328300     -0.00843400
H        0.88771800      2.39517900     -1.34446500
H       -2.13494000      2.57997600     -0.35167000
H       -3.86572800      0.81309600     -0.12260500
H       -0.81434000     -2.14754200      0.28063400

B 2 1 F

--Link1--
%chk=mol_026_E_scan_pt2.chk
%nprocshared=8
%mem=16GB
#p wB97XD/6-311+G(d,p) Geom=Check Guess=Read Stable=Opt Pop=NBO7Read Density=Current scrf=(smd,solvent=water)

mol_026_E SP+NBO7/CMO after constrained opt at R0+0.10A  [oxime: C3=N2-O1]

1 1

$NBO CMO PRINT=2 E2PERT=0.05 BNDIDX $END

--Link1--
%chk=mol_026_E_scan_pt3.chk
%nprocshared=8
%mem=16GB
#p wB97XD/6-311+G(d,p) opt=(ModRedundant) SCF=(Tight,XQC) NoSymm scrf=(smd,solvent=water)

mol_026_E scan pt3 (R0+0.15A) rigid O-N displacement then constrained opt  [oxime: C3=N2-O1]

1 1
O        3.20716982     -1.93352376     -0.19278603
N        1.57483200     -1.70003500     -0.22039300
C        1.33047900     -0.45736000     -0.01629600
C        2.36349600      0.61865100      0.15059100
C        1.77034000      1.95669100      0.57057600
C        0.56943000      2.30360400     -0.29885300
C       -0.47830100      1.22951600     -0.18597800
C       -1.83708900      1.54492500     -0.22755900
C       -2.81079400      0.56786500     -0.10029900
C       -2.40454900     -0.74378000      0.07793800
F       -3.34862500     -1.70172100      0.22046100
C       -1.08152700     -1.11037000      0.12549800
C       -0.10826600     -0.11272400     -0.01705400
H        3.36262382     -2.76629176     -0.67518403
H        3.49971982     -2.08085576      0.72900697
H        2.86420200      0.71132100     -0.82084500
H        3.11994200      0.28469100      0.86255800
H        1.46241700      1.91265500      1.61975600
H        2.54160900      2.72393300      0.48587000
H        0.13857300      3.26328300     -0.00843400
H        0.88771800      2.39517900     -1.34446500
H       -2.13494000      2.57997600     -0.35167000
H       -3.86572800      0.81309600     -0.12260500
H       -0.81434000     -2.14754200      0.28063400

B 2 1 F

--Link1--
%chk=mol_026_E_scan_pt3.chk
%nprocshared=8
%mem=16GB
#p wB97XD/6-311+G(d,p) Geom=Check Guess=Read Stable=Opt Pop=NBO7Read Density=Current scrf=(smd,solvent=water)

mol_026_E SP+NBO7/CMO after constrained opt at R0+0.15A  [oxime: C3=N2-O1]

1 1

$NBO CMO PRINT=2 E2PERT=0.05 BNDIDX $END

--Link1--
%chk=mol_026_E_scan_pt4.chk
%nprocshared=8
%mem=16GB
#p wB97XD/6-311+G(d,p) opt=(ModRedundant) SCF=(Tight,XQC) NoSymm scrf=(smd,solvent=water)

mol_026_E scan pt4 (R0+0.20A) rigid O-N displacement then constrained opt  [oxime: C3=N2-O1]

1 1
O        3.25665910     -1.94060268     -0.19194904
N        1.57483200     -1.70003500     -0.22039300
C        1.33047900     -0.45736000     -0.01629600
C        2.36349600      0.61865100      0.15059100
C        1.77034000      1.95669100      0.57057600
C        0.56943000      2.30360400     -0.29885300
C       -0.47830100      1.22951600     -0.18597800
C       -1.83708900      1.54492500     -0.22755900
C       -2.81079400      0.56786500     -0.10029900
C       -2.40454900     -0.74378000      0.07793800
F       -3.34862500     -1.70172100      0.22046100
C       -1.08152700     -1.11037000      0.12549800
C       -0.10826600     -0.11272400     -0.01705400
H        3.41211310     -2.77337068     -0.67434704
H        3.54920910     -2.08793468      0.72984396
H        2.86420200      0.71132100     -0.82084500
H        3.11994200      0.28469100      0.86255800
H        1.46241700      1.91265500      1.61975600
H        2.54160900      2.72393300      0.48587000
H        0.13857300      3.26328300     -0.00843400
H        0.88771800      2.39517900     -1.34446500
H       -2.13494000      2.57997600     -0.35167000
H       -3.86572800      0.81309600     -0.12260500
H       -0.81434000     -2.14754200      0.28063400

B 2 1 F

--Link1--
%chk=mol_026_E_scan_pt4.chk
%nprocshared=8
%mem=16GB
#p wB97XD/6-311+G(d,p) Geom=Check Guess=Read Stable=Opt Pop=NBO7Read Density=Current scrf=(smd,solvent=water)

mol_026_E SP+NBO7/CMO after constrained opt at R0+0.20A  [oxime: C3=N2-O1]

1 1

$NBO CMO PRINT=2 E2PERT=0.05 BNDIDX $END

--Link1--
%chk=mol_026_E_scan_pt5.chk
%nprocshared=8
%mem=16GB
#p wB97XD/6-311+G(d,p) opt=(ModRedundant) SCF=(Tight,XQC) NoSymm scrf=(smd,solvent=water)

mol_026_E scan pt5 (R0+0.25A) rigid O-N displacement then constrained opt  [oxime: C3=N2-O1]

1 1
O        3.30614837     -1.94768160     -0.19111206
N        1.57483200     -1.70003500     -0.22039300
C        1.33047900     -0.45736000     -0.01629600
C        2.36349600      0.61865100      0.15059100
C        1.77034000      1.95669100      0.57057600
C        0.56943000      2.30360400     -0.29885300
C       -0.47830100      1.22951600     -0.18597800
C       -1.83708900      1.54492500     -0.22755900
C       -2.81079400      0.56786500     -0.10029900
C       -2.40454900     -0.74378000      0.07793800
F       -3.34862500     -1.70172100      0.22046100
C       -1.08152700     -1.11037000      0.12549800
C       -0.10826600     -0.11272400     -0.01705400
H        3.46160237     -2.78044960     -0.67351006
H        3.59869837     -2.09501360      0.73068094
H        2.86420200      0.71132100     -0.82084500
H        3.11994200      0.28469100      0.86255800
H        1.46241700      1.91265500      1.61975600
H        2.54160900      2.72393300      0.48587000
H        0.13857300      3.26328300     -0.00843400
H        0.88771800      2.39517900     -1.34446500
H       -2.13494000      2.57997600     -0.35167000
H       -3.86572800      0.81309600     -0.12260500
H       -0.81434000     -2.14754200      0.28063400

B 2 1 F

--Link1--
%chk=mol_026_E_scan_pt5.chk
%nprocshared=8
%mem=16GB
#p wB97XD/6-311+G(d,p) Geom=Check Guess=Read Stable=Opt Pop=NBO7Read Density=Current scrf=(smd,solvent=water)

mol_026_E SP+NBO7/CMO after constrained opt at R0+0.25A  [oxime: C3=N2-O1]

1 1

$NBO CMO PRINT=2 E2PERT=0.05 BNDIDX $END

--Link1--
%chk=mol_026_E_scan_pt6.chk
%nprocshared=8
%mem=16GB
#p wB97XD/6-311+G(d,p) opt=(ModRedundant) SCF=(Tight,XQC) NoSymm scrf=(smd,solvent=water)

mol_026_E scan pt6 (R0+0.30A) rigid O-N displacement then constrained opt  [oxime: C3=N2-O1]

1 1
O        3.35563765     -1.95476052     -0.19027507
N        1.57483200     -1.70003500     -0.22039300
C        1.33047900     -0.45736000     -0.01629600
C        2.36349600      0.61865100      0.15059100
C        1.77034000      1.95669100      0.57057600
C        0.56943000      2.30360400     -0.29885300
C       -0.47830100      1.22951600     -0.18597800
C       -1.83708900      1.54492500     -0.22755900
C       -2.81079400      0.56786500     -0.10029900
C       -2.40454900     -0.74378000      0.07793800
F       -3.34862500     -1.70172100      0.22046100
C       -1.08152700     -1.11037000      0.12549800
C       -0.10826600     -0.11272400     -0.01705400
H        3.51109165     -2.78752852     -0.67267307
H        3.64818765     -2.10209252      0.73151793
H        2.86420200      0.71132100     -0.82084500
H        3.11994200      0.28469100      0.86255800
H        1.46241700      1.91265500      1.61975600
H        2.54160900      2.72393300      0.48587000
H        0.13857300      3.26328300     -0.00843400
H        0.88771800      2.39517900     -1.34446500
H       -2.13494000      2.57997600     -0.35167000
H       -3.86572800      0.81309600     -0.12260500
H       -0.81434000     -2.14754200      0.28063400

B 2 1 F

--Link1--
%chk=mol_026_E_scan_pt6.chk
%nprocshared=8
%mem=16GB
#p wB97XD/6-311+G(d,p) Geom=Check Guess=Read Stable=Opt Pop=NBO7Read Density=Current scrf=(smd,solvent=water)

mol_026_E SP+NBO7/CMO after constrained opt at R0+0.30A  [oxime: C3=N2-O1]

1 1

$NBO CMO PRINT=2 E2PERT=0.05 BNDIDX $END


