%chk=mol_007_E.chk
%nprocshared=8
%mem=16GB
#p wB97XD/6-311+G(d,p) sp pop=nbo7read

mol_007_E  [oxime: C3=N2-O1]

1 1
O        4.05780000      1.07940000     -0.13240000
N        2.46960000      1.49610000     -0.00240000
C        1.79700000      0.41140000     -0.05410000
C        2.22130000     -1.02380000     -0.20030000
C        0.91320000     -1.83090000     -0.17860000
C       -0.16930000     -0.80500000     -0.04090000
C       -1.53580000     -1.01060000      0.01680000
C       -2.36670000      0.09500000      0.15010000
C       -3.86760000     -0.08800000      0.16560000
F       -4.45630000      0.73890000      1.05260000
F       -4.38730000      0.18630000     -1.05380000
F       -4.21650000     -1.34800000      0.48340000
C       -1.85080000      1.39300000      0.22710000
C       -0.48840000      1.61310000      0.17230000
C        0.34290000      0.49930000      0.03590000
H        4.43360000      1.49220000      0.67040000
H        4.34040000      1.62540000     -0.89270000
H        2.77880000     -1.13480000     -1.12890000
H        2.90010000     -1.28210000      0.61050000
H        0.78830000     -2.41460000     -1.08750000
H        0.89290000     -2.53330000      0.65160000
H       -1.95330000     -2.00470000     -0.03460000
H       -2.53330000      2.22270000      0.33320000
H       -0.11010000      2.62300000      0.23680000
$NBO E2PERT BNDIDX NBOSUM CMO $END


