%chk=mol_025_Z_scan_pt1.chk
%nprocshared=8
%mem=16GB
#p wB97XD/6-311+G(d,p) opt=(ModRedundant) SCF=(Tight,XQC) NoSymm scrf=(smd,solvent=water)

mol_025_Z scan pt1 (R0+0.05A) rigid O-N displacement then constrained opt  [oxime: C9=N10-O11]

1 1
C        4.34628800      0.08761900      0.28663000
O        3.09740800      0.75114600      0.45123600
C        1.96276200      0.06372200      0.13819400
C        1.94503600     -1.24458800     -0.34256500
C        0.72841600     -1.86659400     -0.60533400
C       -0.47950400     -1.21262300     -0.40643300
C       -0.43953600      0.11702000      0.04431000
C        0.76705000      0.75089300      0.32427200
C       -1.75035700      0.76363100      0.22798100
N       -2.12582400      1.94076700     -0.10651100
O       -0.93675571      2.71144858     -0.75988665
C       -2.87310000     -0.05100300      0.83113500
C       -2.68387600     -1.56413400      0.62990500
C       -1.81836100     -1.87190700     -0.59365700
H        4.50956400     -0.18915300     -0.75895200
H        5.10556800      0.80372400      0.59549900
H        4.40439100     -0.80205600      0.92026100
H        2.86437100     -1.79297300     -0.50047400
H        0.72559700     -2.89224700     -0.95805800
H        0.79592400      1.76355300      0.70357300
H       -0.96848571      2.56713058     -1.72519665
H       -1.11090471      3.65711758     -0.60375765
H       -3.81549300      0.29012400      0.40056100
H       -2.89597300      0.19241100      1.89707400
H       -2.20306800     -1.99497700      1.51173500
H       -3.66567500     -2.02951400      0.53170700
H       -1.69108200     -2.94875400     -0.71513900
H       -2.30705800     -1.49576900     -1.50004000

B 10 11 F

--Link1--
%chk=mol_025_Z_scan_pt1.chk
%nprocshared=8
%mem=16GB
#p wB97XD/6-311+G(d,p) Geom=Check Guess=Read Stable=Opt Pop=NBO7Read Density=Current scrf=(smd,solvent=water)

mol_025_Z SP+NBO7/CMO after constrained opt at R0+0.05A  [oxime: C9=N10-O11]

1 1

$NBO CMO PRINT=2 E2PERT=0.05 BNDIDX $END

--Link1--
%chk=mol_025_Z_scan_pt2.chk
%nprocshared=8
%mem=16GB
#p wB97XD/6-311+G(d,p) opt=(ModRedundant) SCF=(Tight,XQC) NoSymm scrf=(smd,solvent=water)

mol_025_Z scan pt2 (R0+0.10A) rigid O-N displacement then constrained opt  [oxime: C9=N10-O11]

1 1
C        4.34628800      0.08761900      0.28663000
O        3.09740800      0.75114600      0.45123600
C        1.96276200      0.06372200      0.13819400
C        1.94503600     -1.24458800     -0.34256500
C        0.72841600     -1.86659400     -0.60533400
C       -0.47950400     -1.21262300     -0.40643300
C       -0.43953600      0.11702000      0.04431000
C        0.76705000      0.75089300      0.32427200
C       -1.75035700      0.76363100      0.22798100
N       -2.12582400      1.94076700     -0.10651100
O       -0.89865341      2.73614417     -0.78082331
C       -2.87310000     -0.05100300      0.83113500
C       -2.68387600     -1.56413400      0.62990500
C       -1.81836100     -1.87190700     -0.59365700
H        4.50956400     -0.18915300     -0.75895200
H        5.10556800      0.80372400      0.59549900
H        4.40439100     -0.80205600      0.92026100
H        2.86437100     -1.79297300     -0.50047400
H        0.72559700     -2.89224700     -0.95805800
H        0.79592400      1.76355300      0.70357300
H       -0.93038341      2.59182617     -1.74613331
H       -1.07280241      3.68181317     -0.62469431
H       -3.81549300      0.29012400      0.40056100
H       -2.89597300      0.19241100      1.89707400
H       -2.20306800     -1.99497700      1.51173500
H       -3.66567500     -2.02951400      0.53170700
H       -1.69108200     -2.94875400     -0.71513900
H       -2.30705800     -1.49576900     -1.50004000

B 10 11 F

--Link1--
%chk=mol_025_Z_scan_pt2.chk
%nprocshared=8
%mem=16GB
#p wB97XD/6-311+G(d,p) Geom=Check Guess=Read Stable=Opt Pop=NBO7Read Density=Current scrf=(smd,solvent=water)

mol_025_Z SP+NBO7/CMO after constrained opt at R0+0.10A  [oxime: C9=N10-O11]

1 1

$NBO CMO PRINT=2 E2PERT=0.05 BNDIDX $END

--Link1--
%chk=mol_025_Z_scan_pt3.chk
%nprocshared=8
%mem=16GB
#p wB97XD/6-311+G(d,p) opt=(ModRedundant) SCF=(Tight,XQC) NoSymm scrf=(smd,solvent=water)

mol_025_Z scan pt3 (R0+0.15A) rigid O-N displacement then constrained opt  [oxime: C9=N10-O11]

1 1
C        4.34628800      0.08761900      0.28663000
O        3.09740800      0.75114600      0.45123600
C        1.96276200      0.06372200      0.13819400
C        1.94503600     -1.24458800     -0.34256500
C        0.72841600     -1.86659400     -0.60533400
C       -0.47950400     -1.21262300     -0.40643300
C       -0.43953600      0.11702000      0.04431000
C        0.76705000      0.75089300      0.32427200
C       -1.75035700      0.76363100      0.22798100
N       -2.12582400      1.94076700     -0.10651100
O       -0.86055112      2.76083975     -0.80175996
C       -2.87310000     -0.05100300      0.83113500
C       -2.68387600     -1.56413400      0.62990500
C       -1.81836100     -1.87190700     -0.59365700
H        4.50956400     -0.18915300     -0.75895200
H        5.10556800      0.80372400      0.59549900
H        4.40439100     -0.80205600      0.92026100
H        2.86437100     -1.79297300     -0.50047400
H        0.72559700     -2.89224700     -0.95805800
H        0.79592400      1.76355300      0.70357300
H       -0.89228112      2.61652175     -1.76706996
H       -1.03470012      3.70650875     -0.64563096
H       -3.81549300      0.29012400      0.40056100
H       -2.89597300      0.19241100      1.89707400
H       -2.20306800     -1.99497700      1.51173500
H       -3.66567500     -2.02951400      0.53170700
H       -1.69108200     -2.94875400     -0.71513900
H       -2.30705800     -1.49576900     -1.50004000

B 10 11 F

--Link1--
%chk=mol_025_Z_scan_pt3.chk
%nprocshared=8
%mem=16GB
#p wB97XD/6-311+G(d,p) Geom=Check Guess=Read Stable=Opt Pop=NBO7Read Density=Current scrf=(smd,solvent=water)

mol_025_Z SP+NBO7/CMO after constrained opt at R0+0.15A  [oxime: C9=N10-O11]

1 1

$NBO CMO PRINT=2 E2PERT=0.05 BNDIDX $END

--Link1--
%chk=mol_025_Z_scan_pt4.chk
%nprocshared=8
%mem=16GB
#p wB97XD/6-311+G(d,p) opt=(ModRedundant) SCF=(Tight,XQC) NoSymm scrf=(smd,solvent=water)

mol_025_Z scan pt4 (R0+0.20A) rigid O-N displacement then constrained opt  [oxime: C9=N10-O11]

1 1
C        4.34628800      0.08761900      0.28663000
O        3.09740800      0.75114600      0.45123600
C        1.96276200      0.06372200      0.13819400
C        1.94503600     -1.24458800     -0.34256500
C        0.72841600     -1.86659400     -0.60533400
C       -0.47950400     -1.21262300     -0.40643300
C       -0.43953600      0.11702000      0.04431000
C        0.76705000      0.75089300      0.32427200
C       -1.75035700      0.76363100      0.22798100
N       -2.12582400      1.94076700     -0.10651100
O       -0.82244883      2.78553533     -0.82269661
C       -2.87310000     -0.05100300      0.83113500
C       -2.68387600     -1.56413400      0.62990500
C       -1.81836100     -1.87190700     -0.59365700
H        4.50956400     -0.18915300     -0.75895200
H        5.10556800      0.80372400      0.59549900
H        4.40439100     -0.80205600      0.92026100
H        2.86437100     -1.79297300     -0.50047400
H        0.72559700     -2.89224700     -0.95805800
H        0.79592400      1.76355300      0.70357300
H       -0.85417883      2.64121733     -1.78800661
H       -0.99659783      3.73120433     -0.66656761
H       -3.81549300      0.29012400      0.40056100
H       -2.89597300      0.19241100      1.89707400
H       -2.20306800     -1.99497700      1.51173500
H       -3.66567500     -2.02951400      0.53170700
H       -1.69108200     -2.94875400     -0.71513900
H       -2.30705800     -1.49576900     -1.50004000

B 10 11 F

--Link1--
%chk=mol_025_Z_scan_pt4.chk
%nprocshared=8
%mem=16GB
#p wB97XD/6-311+G(d,p) Geom=Check Guess=Read Stable=Opt Pop=NBO7Read Density=Current scrf=(smd,solvent=water)

mol_025_Z SP+NBO7/CMO after constrained opt at R0+0.20A  [oxime: C9=N10-O11]

1 1

$NBO CMO PRINT=2 E2PERT=0.05 BNDIDX $END

--Link1--
%chk=mol_025_Z_scan_pt5.chk
%nprocshared=8
%mem=16GB
#p wB97XD/6-311+G(d,p) opt=(ModRedundant) SCF=(Tight,XQC) NoSymm scrf=(smd,solvent=water)

mol_025_Z scan pt5 (R0+0.25A) rigid O-N displacement then constrained opt  [oxime: C9=N10-O11]

1 1
C        4.34628800      0.08761900      0.28663000
O        3.09740800      0.75114600      0.45123600
C        1.96276200      0.06372200      0.13819400
C        1.94503600     -1.24458800     -0.34256500
C        0.72841600     -1.86659400     -0.60533400
C       -0.47950400     -1.21262300     -0.40643300
C       -0.43953600      0.11702000      0.04431000
C        0.76705000      0.75089300      0.32427200
C       -1.75035700      0.76363100      0.22798100
N       -2.12582400      1.94076700     -0.10651100
O       -0.78434654      2.81023092     -0.84363327
C       -2.87310000     -0.05100300      0.83113500
C       -2.68387600     -1.56413400      0.62990500
C       -1.81836100     -1.87190700     -0.59365700
H        4.50956400     -0.18915300     -0.75895200
H        5.10556800      0.80372400      0.59549900
H        4.40439100     -0.80205600      0.92026100
H        2.86437100     -1.79297300     -0.50047400
H        0.72559700     -2.89224700     -0.95805800
H        0.79592400      1.76355300      0.70357300
H       -0.81607654      2.66591292     -1.80894327
H       -0.95849554      3.75589992     -0.68750427
H       -3.81549300      0.29012400      0.40056100
H       -2.89597300      0.19241100      1.89707400
H       -2.20306800     -1.99497700      1.51173500
H       -3.66567500     -2.02951400      0.53170700
H       -1.69108200     -2.94875400     -0.71513900
H       -2.30705800     -1.49576900     -1.50004000

B 10 11 F

--Link1--
%chk=mol_025_Z_scan_pt5.chk
%nprocshared=8
%mem=16GB
#p wB97XD/6-311+G(d,p) Geom=Check Guess=Read Stable=Opt Pop=NBO7Read Density=Current scrf=(smd,solvent=water)

mol_025_Z SP+NBO7/CMO after constrained opt at R0+0.25A  [oxime: C9=N10-O11]

1 1

$NBO CMO PRINT=2 E2PERT=0.05 BNDIDX $END

--Link1--
%chk=mol_025_Z_scan_pt6.chk
%nprocshared=8
%mem=16GB
#p wB97XD/6-311+G(d,p) opt=(ModRedundant) SCF=(Tight,XQC) NoSymm scrf=(smd,solvent=water)

mol_025_Z scan pt6 (R0+0.30A) rigid O-N displacement then constrained opt  [oxime: C9=N10-O11]

1 1
C        4.34628800      0.08761900      0.28663000
O        3.09740800      0.75114600      0.45123600
C        1.96276200      0.06372200      0.13819400
C        1.94503600     -1.24458800     -0.34256500
C        0.72841600     -1.86659400     -0.60533400
C       -0.47950400     -1.21262300     -0.40643300
C       -0.43953600      0.11702000      0.04431000
C        0.76705000      0.75089300      0.32427200
C       -1.75035700      0.76363100      0.22798100
N       -2.12582400      1.94076700     -0.10651100
O       -0.74624424      2.83492650     -0.86456992
C       -2.87310000     -0.05100300      0.83113500
C       -2.68387600     -1.56413400      0.62990500
C       -1.81836100     -1.87190700     -0.59365700
H        4.50956400     -0.18915300     -0.75895200
H        5.10556800      0.80372400      0.59549900
H        4.40439100     -0.80205600      0.92026100
H        2.86437100     -1.79297300     -0.50047400
H        0.72559700     -2.89224700     -0.95805800
H        0.79592400      1.76355300      0.70357300
H       -0.77797424      2.69060850     -1.82987992
H       -0.92039324      3.78059550     -0.70844092
H       -3.81549300      0.29012400      0.40056100
H       -2.89597300      0.19241100      1.89707400
H       -2.20306800     -1.99497700      1.51173500
H       -3.66567500     -2.02951400      0.53170700
H       -1.69108200     -2.94875400     -0.71513900
H       -2.30705800     -1.49576900     -1.50004000

B 10 11 F

--Link1--
%chk=mol_025_Z_scan_pt6.chk
%nprocshared=8
%mem=16GB
#p wB97XD/6-311+G(d,p) Geom=Check Guess=Read Stable=Opt Pop=NBO7Read Density=Current scrf=(smd,solvent=water)

mol_025_Z SP+NBO7/CMO after constrained opt at R0+0.30A  [oxime: C9=N10-O11]

1 1

$NBO CMO PRINT=2 E2PERT=0.05 BNDIDX $END


