%chk=mol_003_Z_scan_pt1.chk
%nprocshared=8
%mem=16GB
#p wB97XD/6-311+G(d,p) opt=(ModRedundant) SCF=(Tight,XQC) NoSymm scrf=(smd,solvent=water)

mol_003_Z scan pt1 (R0+0.05A) rigid O-N displacement then constrained opt  [oxime: C3=N2-O1]

1 1
O        2.56076842     -1.89831971      0.12181689
N        2.85006300     -0.36870400      0.02993800
C        1.73618800      0.25811900     -0.05232400
C        1.83081700      1.76010000     -0.17805800
C        0.41190400      2.26999200      0.11694100
C       -0.43883400      1.03756100      0.03945100
C       -1.82415500      0.97239700      0.06513600
C       -2.39330100     -0.28370400      0.00378400
F       -3.73565700     -0.37715400      0.02276300
C       -1.66152800     -1.46275100     -0.07930600
C       -0.28120400     -1.39099000     -0.09980100
C        0.33004500     -0.13197200     -0.04084900
H        2.94454142     -2.21018071      0.96233689
H        3.06255942     -2.32468171     -0.59736411
H        2.11559300      1.98129500     -1.21013500
H        2.59546800      2.17228800      0.47867000
H        0.08884500      3.03330900     -0.59171900
H        0.34862000      2.70018000      1.11964800
H       -2.44283400      1.85912200      0.12762100
H       -2.17821600     -2.41273700     -0.12914100
H        0.29739900     -2.29968100     -0.16925900

B 2 1 F

--Link1--
%chk=mol_003_Z_scan_pt1.chk
%nprocshared=8
%mem=16GB
#p wB97XD/6-311+G(d,p) Geom=Check Guess=Read Stable=Opt Pop=NBO7Read Density=Current scrf=(smd,solvent=water)

mol_003_Z SP+NBO7/CMO after constrained opt at R0+0.05A  [oxime: C3=N2-O1]

1 1

$NBO CMO PRINT=2 E2PERT=0.05 BNDIDX $END

--Link1--
%chk=mol_003_Z_scan_pt2.chk
%nprocshared=8
%mem=16GB
#p wB97XD/6-311+G(d,p) opt=(ModRedundant) SCF=(Tight,XQC) NoSymm scrf=(smd,solvent=water)

mol_003_Z scan pt2 (R0+0.10A) rigid O-N displacement then constrained opt  [oxime: C3=N2-O1]

1 1
O        2.55149283     -1.94736342      0.12476278
N        2.85006300     -0.36870400      0.02993800
C        1.73618800      0.25811900     -0.05232400
C        1.83081700      1.76010000     -0.17805800
C        0.41190400      2.26999200      0.11694100
C       -0.43883400      1.03756100      0.03945100
C       -1.82415500      0.97239700      0.06513600
C       -2.39330100     -0.28370400      0.00378400
F       -3.73565700     -0.37715400      0.02276300
C       -1.66152800     -1.46275100     -0.07930600
C       -0.28120400     -1.39099000     -0.09980100
C        0.33004500     -0.13197200     -0.04084900
H        2.93526583     -2.25922442      0.96528278
H        3.05328383     -2.37372542     -0.59441822
H        2.11559300      1.98129500     -1.21013500
H        2.59546800      2.17228800      0.47867000
H        0.08884500      3.03330900     -0.59171900
H        0.34862000      2.70018000      1.11964800
H       -2.44283400      1.85912200      0.12762100
H       -2.17821600     -2.41273700     -0.12914100
H        0.29739900     -2.29968100     -0.16925900

B 2 1 F

--Link1--
%chk=mol_003_Z_scan_pt2.chk
%nprocshared=8
%mem=16GB
#p wB97XD/6-311+G(d,p) Geom=Check Guess=Read Stable=Opt Pop=NBO7Read Density=Current scrf=(smd,solvent=water)

mol_003_Z SP+NBO7/CMO after constrained opt at R0+0.10A  [oxime: C3=N2-O1]

1 1

$NBO CMO PRINT=2 E2PERT=0.05 BNDIDX $END

--Link1--
%chk=mol_003_Z_scan_pt3.chk
%nprocshared=8
%mem=16GB
#p wB97XD/6-311+G(d,p) opt=(ModRedundant) SCF=(Tight,XQC) NoSymm scrf=(smd,solvent=water)

mol_003_Z scan pt3 (R0+0.15A) rigid O-N displacement then constrained opt  [oxime: C3=N2-O1]

1 1
O        2.54221725     -1.99640712      0.12770867
N        2.85006300     -0.36870400      0.02993800
C        1.73618800      0.25811900     -0.05232400
C        1.83081700      1.76010000     -0.17805800
C        0.41190400      2.26999200      0.11694100
C       -0.43883400      1.03756100      0.03945100
C       -1.82415500      0.97239700      0.06513600
C       -2.39330100     -0.28370400      0.00378400
F       -3.73565700     -0.37715400      0.02276300
C       -1.66152800     -1.46275100     -0.07930600
C       -0.28120400     -1.39099000     -0.09980100
C        0.33004500     -0.13197200     -0.04084900
H        2.92599025     -2.30826812      0.96822867
H        3.04400825     -2.42276912     -0.59147233
H        2.11559300      1.98129500     -1.21013500
H        2.59546800      2.17228800      0.47867000
H        0.08884500      3.03330900     -0.59171900
H        0.34862000      2.70018000      1.11964800
H       -2.44283400      1.85912200      0.12762100
H       -2.17821600     -2.41273700     -0.12914100
H        0.29739900     -2.29968100     -0.16925900

B 2 1 F

--Link1--
%chk=mol_003_Z_scan_pt3.chk
%nprocshared=8
%mem=16GB
#p wB97XD/6-311+G(d,p) Geom=Check Guess=Read Stable=Opt Pop=NBO7Read Density=Current scrf=(smd,solvent=water)

mol_003_Z SP+NBO7/CMO after constrained opt at R0+0.15A  [oxime: C3=N2-O1]

1 1

$NBO CMO PRINT=2 E2PERT=0.05 BNDIDX $END

--Link1--
%chk=mol_003_Z_scan_pt4.chk
%nprocshared=8
%mem=16GB
#p wB97XD/6-311+G(d,p) opt=(ModRedundant) SCF=(Tight,XQC) NoSymm scrf=(smd,solvent=water)

mol_003_Z scan pt4 (R0+0.20A) rigid O-N displacement then constrained opt  [oxime: C3=N2-O1]

1 1
O        2.53294166     -2.04545083      0.13065456
N        2.85006300     -0.36870400      0.02993800
C        1.73618800      0.25811900     -0.05232400
C        1.83081700      1.76010000     -0.17805800
C        0.41190400      2.26999200      0.11694100
C       -0.43883400      1.03756100      0.03945100
C       -1.82415500      0.97239700      0.06513600
C       -2.39330100     -0.28370400      0.00378400
F       -3.73565700     -0.37715400      0.02276300
C       -1.66152800     -1.46275100     -0.07930600
C       -0.28120400     -1.39099000     -0.09980100
C        0.33004500     -0.13197200     -0.04084900
H        2.91671466     -2.35731183      0.97117456
H        3.03473266     -2.47181283     -0.58852644
H        2.11559300      1.98129500     -1.21013500
H        2.59546800      2.17228800      0.47867000
H        0.08884500      3.03330900     -0.59171900
H        0.34862000      2.70018000      1.11964800
H       -2.44283400      1.85912200      0.12762100
H       -2.17821600     -2.41273700     -0.12914100
H        0.29739900     -2.29968100     -0.16925900

B 2 1 F

--Link1--
%chk=mol_003_Z_scan_pt4.chk
%nprocshared=8
%mem=16GB
#p wB97XD/6-311+G(d,p) Geom=Check Guess=Read Stable=Opt Pop=NBO7Read Density=Current scrf=(smd,solvent=water)

mol_003_Z SP+NBO7/CMO after constrained opt at R0+0.20A  [oxime: C3=N2-O1]

1 1

$NBO CMO PRINT=2 E2PERT=0.05 BNDIDX $END

--Link1--
%chk=mol_003_Z_scan_pt5.chk
%nprocshared=8
%mem=16GB
#p wB97XD/6-311+G(d,p) opt=(ModRedundant) SCF=(Tight,XQC) NoSymm scrf=(smd,solvent=water)

mol_003_Z scan pt5 (R0+0.25A) rigid O-N displacement then constrained opt  [oxime: C3=N2-O1]

1 1
O        2.52366608     -2.09449454      0.13360046
N        2.85006300     -0.36870400      0.02993800
C        1.73618800      0.25811900     -0.05232400
C        1.83081700      1.76010000     -0.17805800
C        0.41190400      2.26999200      0.11694100
C       -0.43883400      1.03756100      0.03945100
C       -1.82415500      0.97239700      0.06513600
C       -2.39330100     -0.28370400      0.00378400
F       -3.73565700     -0.37715400      0.02276300
C       -1.66152800     -1.46275100     -0.07930600
C       -0.28120400     -1.39099000     -0.09980100
C        0.33004500     -0.13197200     -0.04084900
H        2.90743908     -2.40635554      0.97412046
H        3.02545708     -2.52085654     -0.58558054
H        2.11559300      1.98129500     -1.21013500
H        2.59546800      2.17228800      0.47867000
H        0.08884500      3.03330900     -0.59171900
H        0.34862000      2.70018000      1.11964800
H       -2.44283400      1.85912200      0.12762100
H       -2.17821600     -2.41273700     -0.12914100
H        0.29739900     -2.29968100     -0.16925900

B 2 1 F

--Link1--
%chk=mol_003_Z_scan_pt5.chk
%nprocshared=8
%mem=16GB
#p wB97XD/6-311+G(d,p) Geom=Check Guess=Read Stable=Opt Pop=NBO7Read Density=Current scrf=(smd,solvent=water)

mol_003_Z SP+NBO7/CMO after constrained opt at R0+0.25A  [oxime: C3=N2-O1]

1 1

$NBO CMO PRINT=2 E2PERT=0.05 BNDIDX $END

--Link1--
%chk=mol_003_Z_scan_pt6.chk
%nprocshared=8
%mem=16GB
#p wB97XD/6-311+G(d,p) opt=(ModRedundant) SCF=(Tight,XQC) NoSymm scrf=(smd,solvent=water)

mol_003_Z scan pt6 (R0+0.30A) rigid O-N displacement then constrained opt  [oxime: C3=N2-O1]

1 1
O        2.51439050     -2.14353825      0.13654635
N        2.85006300     -0.36870400      0.02993800
C        1.73618800      0.25811900     -0.05232400
C        1.83081700      1.76010000     -0.17805800
C        0.41190400      2.26999200      0.11694100
C       -0.43883400      1.03756100      0.03945100
C       -1.82415500      0.97239700      0.06513600
C       -2.39330100     -0.28370400      0.00378400
F       -3.73565700     -0.37715400      0.02276300
C       -1.66152800     -1.46275100     -0.07930600
C       -0.28120400     -1.39099000     -0.09980100
C        0.33004500     -0.13197200     -0.04084900
H        2.89816350     -2.45539925      0.97706635
H        3.01618150     -2.56990025     -0.58263465
H        2.11559300      1.98129500     -1.21013500
H        2.59546800      2.17228800      0.47867000
H        0.08884500      3.03330900     -0.59171900
H        0.34862000      2.70018000      1.11964800
H       -2.44283400      1.85912200      0.12762100
H       -2.17821600     -2.41273700     -0.12914100
H        0.29739900     -2.29968100     -0.16925900

B 2 1 F

--Link1--
%chk=mol_003_Z_scan_pt6.chk
%nprocshared=8
%mem=16GB
#p wB97XD/6-311+G(d,p) Geom=Check Guess=Read Stable=Opt Pop=NBO7Read Density=Current scrf=(smd,solvent=water)

mol_003_Z SP+NBO7/CMO after constrained opt at R0+0.30A  [oxime: C3=N2-O1]

1 1

$NBO CMO PRINT=2 E2PERT=0.05 BNDIDX $END


