%chk=mol_003_Z_opt.chk
%nprocshared=8
%mem=16GB
#p wB97XD/6-311+G(d,p) opt scrf=(smd,solvent=water)

mol_003_Z opt  [oxime: C3=N2-O1]

1 1
O       -2.10040000      2.33060000     -0.54630000
N       -2.42520000      0.66420000     -0.62350000
C       -1.35260000      0.02250000     -0.38720000
C       -1.59480000     -1.48690000     -0.44920000
C       -0.31170000     -2.10590000      0.13570000
C        0.64410000     -0.96510000      0.23910000
C        1.97820000     -1.01070000      0.58750000
C        2.67190000      0.18640000      0.63110000
F        3.95970000      0.15640000      0.96610000
C        2.09200000      1.42040000      0.34060000
C        0.76220000      1.46440000     -0.00590000
C        0.03160000      0.27040000     -0.05350000
H       -2.56580000      2.59180000      0.27160000
H       -2.63370000      2.64410000     -1.30170000
H       -1.73700000     -1.76560000     -1.48990000
H       -2.49650000     -1.77210000      0.08220000
H        0.07910000     -2.91270000     -0.47980000
H       -0.50160000     -2.53420000      1.11920000
H        2.48630000     -1.93470000      0.82070000
H        2.69060000      2.31660000      0.38680000
H        0.32360000      2.42000000     -0.24370000


