%chk=mol_014_Z_sp3.chk
%nprocshared=8
%mem=16GB
#p wB97XD/6-311+G(d,p) sp pop=nbo7read scrf=(smd,solvent=water)

mol_014_Z_sp3  R(N-O)=1.7034A  [oxime: C3=N2-O1]

1 1
O       -2.53928600     -1.22595300     -0.53726100
N       -2.46234800      0.41141300     -0.07382700
C       -1.24210600      0.69671900      0.13829800
C       -1.00828500      2.16775800      0.44398000
C        0.40429400      2.40803200     -0.11385000
C        1.02890000      1.04287200     -0.10538400
C        2.36854300      0.71846500     -0.24441300
C        2.74241200     -0.61839600     -0.18173600
C        1.80245100     -1.62345800      0.03839200
C        0.47201400     -1.28722300      0.16940000
F       -0.39903900     -2.26308900      0.45651600
C        0.05906500      0.04074500      0.06679100
H       -2.87421000     -1.69819100      0.24490400
H       -3.26806300     -1.21182500     -1.18093700
H       -1.01415800      2.26467600      1.53287600
H       -1.77736800      2.81221700      0.02425500
H        0.96620800      3.12203300      0.48827900
H        0.35252300      2.79130200     -1.13624600
H        3.11007100      1.49541700     -0.38444200
H        3.78636100     -0.89176800     -0.28089700
H        2.09699200     -2.66140300      0.12957300

$NBO E2PERT BNDIDX NBOSUM CMO $END


