%chk=mol_014_Z_opt.chk
%nprocshared=8
%mem=16GB
#p wB97XD/6-311+G(d,p) opt scrf=(smd,solvent=water)

mol_014_Z opt  [oxime: C3=N2-O1]

1 1
O       -2.10710000      2.36730000      0.05440000
N       -2.44820000      0.86530000     -0.25760000
C       -1.40820000      0.12100000     -0.19650000
C       -1.74510000     -1.35250000     -0.20090000
C       -0.49930000     -2.02540000      0.40480000
C        0.57260000     -0.99200000      0.27820000
C        1.93460000     -1.12350000      0.47300000
C        2.75630000     -0.02520000      0.26350000
C        2.25310000      1.20740000     -0.14950000
C        0.89880000      1.31970000     -0.32910000
F        0.40760000      2.51410000     -0.80650000
C        0.03130000      0.25800000     -0.08690000
H       -1.33340000      2.64000000     -0.50920000
H       -2.92310000      2.80930000     -0.25120000
H       -1.88800000     -1.65270000     -1.23920000
H       -2.67130000     -1.56660000      0.32400000
H       -0.24370000     -2.95930000     -0.09090000
H       -0.66930000     -2.25880000      1.45760000
H        2.35780000     -2.06980000      0.77660000
H        3.81970000     -0.12390000      0.41660000
H        2.90500000      2.04790000     -0.33110000


