%chk=mol_033_E_scan_pt1.chk
%nprocshared=8
%mem=16GB
#p wB97XD/6-311+G(d,p) opt=(ModRedundant) SCF=(Tight,XQC) NoSymm scrf=(smd,solvent=water)

mol_033_E scan pt1 (R0+0.05A) rigid O-N displacement then constrained opt  [oxime: C3=N2-O1]

1 1
O       -3.93372443     -1.38030236     -0.24092166
N       -2.39096200     -1.50892600     -0.19849800
C       -1.88678700     -0.34731400      0.00928200
C       -2.66960000      0.92611600      0.14205000
C       -1.80440500      2.12144100      0.51855500
C       -0.55239700      2.16728000     -0.34774500
C        0.24127700      0.90260100     -0.16627000
C        1.63387600      0.92828200     -0.19230800
C        2.34621700     -0.24269700     -0.00134800
Cl       4.09517400     -0.18821100     -0.03495300
C        1.71467500     -1.45883500      0.23269900
C        0.33312100     -1.48893500      0.25625600
C       -0.41064400     -0.32148200      0.04744300
H       -4.24928843     -2.14585036     -0.75462466
H       -4.30476243     -1.46399036      0.65902334
H       -3.47093500      0.77971000      0.86842200
H       -3.15113200      1.09409200     -0.82851500
H       -2.39071400      3.03313200      0.39424800
H       -1.51691400      2.05530900      1.57226500
H       -0.83739100      2.26766600     -1.40201600
H        0.06960300      3.02820500     -0.09783600
H        2.15008100      1.86719200     -0.35416100
H        2.28994300     -2.36038800      0.39908300
H       -0.17000200     -2.42780300      0.44979500

B 2 1 F

--Link1--
%chk=mol_033_E_scan_pt1.chk
%nprocshared=8
%mem=16GB
#p wB97XD/6-311+G(d,p) Geom=Check Guess=Read Stable=Opt Pop=NBO7Read Density=Current scrf=(smd,solvent=water)

mol_033_E SP+NBO7/CMO after constrained opt at R0+0.05A  [oxime: C3=N2-O1]

1 1

$NBO CMO PRINT=2 E2PERT=0.05 BNDIDX $END

--Link1--
%chk=mol_033_E_scan_pt2.chk
%nprocshared=8
%mem=16GB
#p wB97XD/6-311+G(d,p) opt=(ModRedundant) SCF=(Tight,XQC) NoSymm scrf=(smd,solvent=water)

mol_033_E scan pt2 (R0+0.10A) rigid O-N displacement then constrained opt  [oxime: C3=N2-O1]

1 1
O       -3.98353286     -1.37614971     -0.24229131
N       -2.39096200     -1.50892600     -0.19849800
C       -1.88678700     -0.34731400      0.00928200
C       -2.66960000      0.92611600      0.14205000
C       -1.80440500      2.12144100      0.51855500
C       -0.55239700      2.16728000     -0.34774500
C        0.24127700      0.90260100     -0.16627000
C        1.63387600      0.92828200     -0.19230800
C        2.34621700     -0.24269700     -0.00134800
Cl       4.09517400     -0.18821100     -0.03495300
C        1.71467500     -1.45883500      0.23269900
C        0.33312100     -1.48893500      0.25625600
C       -0.41064400     -0.32148200      0.04744300
H       -4.29909686     -2.14169771     -0.75599431
H       -4.35457086     -1.45983771      0.65765369
H       -3.47093500      0.77971000      0.86842200
H       -3.15113200      1.09409200     -0.82851500
H       -2.39071400      3.03313200      0.39424800
H       -1.51691400      2.05530900      1.57226500
H       -0.83739100      2.26766600     -1.40201600
H        0.06960300      3.02820500     -0.09783600
H        2.15008100      1.86719200     -0.35416100
H        2.28994300     -2.36038800      0.39908300
H       -0.17000200     -2.42780300      0.44979500

B 2 1 F

--Link1--
%chk=mol_033_E_scan_pt2.chk
%nprocshared=8
%mem=16GB
#p wB97XD/6-311+G(d,p) Geom=Check Guess=Read Stable=Opt Pop=NBO7Read Density=Current scrf=(smd,solvent=water)

mol_033_E SP+NBO7/CMO after constrained opt at R0+0.10A  [oxime: C3=N2-O1]

1 1

$NBO CMO PRINT=2 E2PERT=0.05 BNDIDX $END

--Link1--
%chk=mol_033_E_scan_pt3.chk
%nprocshared=8
%mem=16GB
#p wB97XD/6-311+G(d,p) opt=(ModRedundant) SCF=(Tight,XQC) NoSymm scrf=(smd,solvent=water)

mol_033_E scan pt3 (R0+0.15A) rigid O-N displacement then constrained opt  [oxime: C3=N2-O1]

1 1
O       -4.03334129     -1.37199707     -0.24366097
N       -2.39096200     -1.50892600     -0.19849800
C       -1.88678700     -0.34731400      0.00928200
C       -2.66960000      0.92611600      0.14205000
C       -1.80440500      2.12144100      0.51855500
C       -0.55239700      2.16728000     -0.34774500
C        0.24127700      0.90260100     -0.16627000
C        1.63387600      0.92828200     -0.19230800
C        2.34621700     -0.24269700     -0.00134800
Cl       4.09517400     -0.18821100     -0.03495300
C        1.71467500     -1.45883500      0.23269900
C        0.33312100     -1.48893500      0.25625600
C       -0.41064400     -0.32148200      0.04744300
H       -4.34890529     -2.13754507     -0.75736397
H       -4.40437929     -1.45568507      0.65628403
H       -3.47093500      0.77971000      0.86842200
H       -3.15113200      1.09409200     -0.82851500
H       -2.39071400      3.03313200      0.39424800
H       -1.51691400      2.05530900      1.57226500
H       -0.83739100      2.26766600     -1.40201600
H        0.06960300      3.02820500     -0.09783600
H        2.15008100      1.86719200     -0.35416100
H        2.28994300     -2.36038800      0.39908300
H       -0.17000200     -2.42780300      0.44979500

B 2 1 F

--Link1--
%chk=mol_033_E_scan_pt3.chk
%nprocshared=8
%mem=16GB
#p wB97XD/6-311+G(d,p) Geom=Check Guess=Read Stable=Opt Pop=NBO7Read Density=Current scrf=(smd,solvent=water)

mol_033_E SP+NBO7/CMO after constrained opt at R0+0.15A  [oxime: C3=N2-O1]

1 1

$NBO CMO PRINT=2 E2PERT=0.05 BNDIDX $END

--Link1--
%chk=mol_033_E_scan_pt4.chk
%nprocshared=8
%mem=16GB
#p wB97XD/6-311+G(d,p) opt=(ModRedundant) SCF=(Tight,XQC) NoSymm scrf=(smd,solvent=water)

mol_033_E scan pt4 (R0+0.20A) rigid O-N displacement then constrained opt  [oxime: C3=N2-O1]

1 1
O       -4.08314972     -1.36784443     -0.24503063
N       -2.39096200     -1.50892600     -0.19849800
C       -1.88678700     -0.34731400      0.00928200
C       -2.66960000      0.92611600      0.14205000
C       -1.80440500      2.12144100      0.51855500
C       -0.55239700      2.16728000     -0.34774500
C        0.24127700      0.90260100     -0.16627000
C        1.63387600      0.92828200     -0.19230800
C        2.34621700     -0.24269700     -0.00134800
Cl       4.09517400     -0.18821100     -0.03495300
C        1.71467500     -1.45883500      0.23269900
C        0.33312100     -1.48893500      0.25625600
C       -0.41064400     -0.32148200      0.04744300
H       -4.39871372     -2.13339243     -0.75873363
H       -4.45418772     -1.45153243      0.65491437
H       -3.47093500      0.77971000      0.86842200
H       -3.15113200      1.09409200     -0.82851500
H       -2.39071400      3.03313200      0.39424800
H       -1.51691400      2.05530900      1.57226500
H       -0.83739100      2.26766600     -1.40201600
H        0.06960300      3.02820500     -0.09783600
H        2.15008100      1.86719200     -0.35416100
H        2.28994300     -2.36038800      0.39908300
H       -0.17000200     -2.42780300      0.44979500

B 2 1 F

--Link1--
%chk=mol_033_E_scan_pt4.chk
%nprocshared=8
%mem=16GB
#p wB97XD/6-311+G(d,p) Geom=Check Guess=Read Stable=Opt Pop=NBO7Read Density=Current scrf=(smd,solvent=water)

mol_033_E SP+NBO7/CMO after constrained opt at R0+0.20A  [oxime: C3=N2-O1]

1 1

$NBO CMO PRINT=2 E2PERT=0.05 BNDIDX $END

--Link1--
%chk=mol_033_E_scan_pt5.chk
%nprocshared=8
%mem=16GB
#p wB97XD/6-311+G(d,p) opt=(ModRedundant) SCF=(Tight,XQC) NoSymm scrf=(smd,solvent=water)

mol_033_E scan pt5 (R0+0.25A) rigid O-N displacement then constrained opt  [oxime: C3=N2-O1]

1 1
O       -4.13295814     -1.36369179     -0.24640029
N       -2.39096200     -1.50892600     -0.19849800
C       -1.88678700     -0.34731400      0.00928200
C       -2.66960000      0.92611600      0.14205000
C       -1.80440500      2.12144100      0.51855500
C       -0.55239700      2.16728000     -0.34774500
C        0.24127700      0.90260100     -0.16627000
C        1.63387600      0.92828200     -0.19230800
C        2.34621700     -0.24269700     -0.00134800
Cl       4.09517400     -0.18821100     -0.03495300
C        1.71467500     -1.45883500      0.23269900
C        0.33312100     -1.48893500      0.25625600
C       -0.41064400     -0.32148200      0.04744300
H       -4.44852214     -2.12923979     -0.76010329
H       -4.50399614     -1.44737979      0.65354471
H       -3.47093500      0.77971000      0.86842200
H       -3.15113200      1.09409200     -0.82851500
H       -2.39071400      3.03313200      0.39424800
H       -1.51691400      2.05530900      1.57226500
H       -0.83739100      2.26766600     -1.40201600
H        0.06960300      3.02820500     -0.09783600
H        2.15008100      1.86719200     -0.35416100
H        2.28994300     -2.36038800      0.39908300
H       -0.17000200     -2.42780300      0.44979500

B 2 1 F

--Link1--
%chk=mol_033_E_scan_pt5.chk
%nprocshared=8
%mem=16GB
#p wB97XD/6-311+G(d,p) Geom=Check Guess=Read Stable=Opt Pop=NBO7Read Density=Current scrf=(smd,solvent=water)

mol_033_E SP+NBO7/CMO after constrained opt at R0+0.25A  [oxime: C3=N2-O1]

1 1

$NBO CMO PRINT=2 E2PERT=0.05 BNDIDX $END

--Link1--
%chk=mol_033_E_scan_pt6.chk
%nprocshared=8
%mem=16GB
#p wB97XD/6-311+G(d,p) opt=(ModRedundant) SCF=(Tight,XQC) NoSymm scrf=(smd,solvent=water)

mol_033_E scan pt6 (R0+0.30A) rigid O-N displacement then constrained opt  [oxime: C3=N2-O1]

1 1
O       -4.18276657     -1.35953914     -0.24776994
N       -2.39096200     -1.50892600     -0.19849800
C       -1.88678700     -0.34731400      0.00928200
C       -2.66960000      0.92611600      0.14205000
C       -1.80440500      2.12144100      0.51855500
C       -0.55239700      2.16728000     -0.34774500
C        0.24127700      0.90260100     -0.16627000
C        1.63387600      0.92828200     -0.19230800
C        2.34621700     -0.24269700     -0.00134800
Cl       4.09517400     -0.18821100     -0.03495300
C        1.71467500     -1.45883500      0.23269900
C        0.33312100     -1.48893500      0.25625600
C       -0.41064400     -0.32148200      0.04744300
H       -4.49833057     -2.12508714     -0.76147294
H       -4.55380457     -1.44322714      0.65217506
H       -3.47093500      0.77971000      0.86842200
H       -3.15113200      1.09409200     -0.82851500
H       -2.39071400      3.03313200      0.39424800
H       -1.51691400      2.05530900      1.57226500
H       -0.83739100      2.26766600     -1.40201600
H        0.06960300      3.02820500     -0.09783600
H        2.15008100      1.86719200     -0.35416100
H        2.28994300     -2.36038800      0.39908300
H       -0.17000200     -2.42780300      0.44979500

B 2 1 F

--Link1--
%chk=mol_033_E_scan_pt6.chk
%nprocshared=8
%mem=16GB
#p wB97XD/6-311+G(d,p) Geom=Check Guess=Read Stable=Opt Pop=NBO7Read Density=Current scrf=(smd,solvent=water)

mol_033_E SP+NBO7/CMO after constrained opt at R0+0.30A  [oxime: C3=N2-O1]

1 1

$NBO CMO PRINT=2 E2PERT=0.05 BNDIDX $END


