%chk=mol_007_E_scan_pt1.chk
%nprocshared=8
%mem=16GB
#p wB97XD/6-311+G(d,p) opt=(ModRedundant) SCF=(Tight,XQC) NoSymm scrf=(smd,solvent=water)

mol_007_E scan pt1 (R0+0.05A) rigid O-N displacement then constrained opt  [oxime: C3=N2-O1]

1 1
O        4.83526385     -0.64230203      0.00608598
N        3.37270800     -1.17293900      0.01075400
C        2.60477100     -0.14960500      0.00614700
C        2.93242600      1.31403000      0.00248900
C        1.57273200      2.03748000      0.00566100
C        0.55670800      0.93231300     -0.00427600
C       -0.82913400      1.03867700     -0.01893300
C       -1.57763900     -0.12932700     -0.02965500
C       -3.07958100     -0.04926900     -0.00397900
F       -3.65261300     -0.98777200     -0.77872100
F       -3.56495200     -0.23605000      1.24240600
F       -3.54506400      1.13782000     -0.42172700
C       -0.97768400     -1.39434000     -0.01685800
C        0.40016400     -1.50172400     -0.00355300
C        1.15149900     -0.32708100      0.00089700
H        5.24581985     -0.92432103     -0.83332702
H        5.31034085     -1.09771703      0.72621798
H        3.54082100      1.54889100      0.87802200
H        3.53214700      1.54670400     -0.87973600
H        1.45311800      2.66417600      0.89158400
H        1.45622900      2.68082400     -0.86839500
H       -1.30736500      2.01017500     -0.02434500
H       -1.58986600     -2.28767400     -0.02140500
H        0.87580000     -2.47444500      0.00064900

B 2 1 F

--Link1--
%chk=mol_007_E_scan_pt1.chk
%nprocshared=8
%mem=16GB
#p wB97XD/6-311+G(d,p) Geom=Check Guess=Read Stable=Opt Pop=NBO7Read Density=Current scrf=(smd,solvent=water)

mol_007_E SP+NBO7/CMO after constrained opt at R0+0.05A  [oxime: C3=N2-O1]

1 1

$NBO CMO PRINT=2 E2PERT=0.05 BNDIDX $END

--Link1--
%chk=mol_007_E_scan_pt2.chk
%nprocshared=8
%mem=16GB
#p wB97XD/6-311+G(d,p) opt=(ModRedundant) SCF=(Tight,XQC) NoSymm scrf=(smd,solvent=water)

mol_007_E scan pt2 (R0+0.10A) rigid O-N displacement then constrained opt  [oxime: C3=N2-O1]

1 1
O        4.88226570     -0.62524906      0.00593597
N        3.37270800     -1.17293900      0.01075400
C        2.60477100     -0.14960500      0.00614700
C        2.93242600      1.31403000      0.00248900
C        1.57273200      2.03748000      0.00566100
C        0.55670800      0.93231300     -0.00427600
C       -0.82913400      1.03867700     -0.01893300
C       -1.57763900     -0.12932700     -0.02965500
C       -3.07958100     -0.04926900     -0.00397900
F       -3.65261300     -0.98777200     -0.77872100
F       -3.56495200     -0.23605000      1.24240600
F       -3.54506400      1.13782000     -0.42172700
C       -0.97768400     -1.39434000     -0.01685800
C        0.40016400     -1.50172400     -0.00355300
C        1.15149900     -0.32708100      0.00089700
H        5.29282170     -0.90726806     -0.83347703
H        5.35734270     -1.08066406      0.72606797
H        3.54082100      1.54889100      0.87802200
H        3.53214700      1.54670400     -0.87973600
H        1.45311800      2.66417600      0.89158400
H        1.45622900      2.68082400     -0.86839500
H       -1.30736500      2.01017500     -0.02434500
H       -1.58986600     -2.28767400     -0.02140500
H        0.87580000     -2.47444500      0.00064900

B 2 1 F

--Link1--
%chk=mol_007_E_scan_pt2.chk
%nprocshared=8
%mem=16GB
#p wB97XD/6-311+G(d,p) Geom=Check Guess=Read Stable=Opt Pop=NBO7Read Density=Current scrf=(smd,solvent=water)

mol_007_E SP+NBO7/CMO after constrained opt at R0+0.10A  [oxime: C3=N2-O1]

1 1

$NBO CMO PRINT=2 E2PERT=0.05 BNDIDX $END

--Link1--
%chk=mol_007_E_scan_pt3.chk
%nprocshared=8
%mem=16GB
#p wB97XD/6-311+G(d,p) opt=(ModRedundant) SCF=(Tight,XQC) NoSymm scrf=(smd,solvent=water)

mol_007_E scan pt3 (R0+0.15A) rigid O-N displacement then constrained opt  [oxime: C3=N2-O1]

1 1
O        4.92926755     -0.60819610      0.00578595
N        3.37270800     -1.17293900      0.01075400
C        2.60477100     -0.14960500      0.00614700
C        2.93242600      1.31403000      0.00248900
C        1.57273200      2.03748000      0.00566100
C        0.55670800      0.93231300     -0.00427600
C       -0.82913400      1.03867700     -0.01893300
C       -1.57763900     -0.12932700     -0.02965500
C       -3.07958100     -0.04926900     -0.00397900
F       -3.65261300     -0.98777200     -0.77872100
F       -3.56495200     -0.23605000      1.24240600
F       -3.54506400      1.13782000     -0.42172700
C       -0.97768400     -1.39434000     -0.01685800
C        0.40016400     -1.50172400     -0.00355300
C        1.15149900     -0.32708100      0.00089700
H        5.33982355     -0.89021510     -0.83362705
H        5.40434455     -1.06361110      0.72591795
H        3.54082100      1.54889100      0.87802200
H        3.53214700      1.54670400     -0.87973600
H        1.45311800      2.66417600      0.89158400
H        1.45622900      2.68082400     -0.86839500
H       -1.30736500      2.01017500     -0.02434500
H       -1.58986600     -2.28767400     -0.02140500
H        0.87580000     -2.47444500      0.00064900

B 2 1 F

--Link1--
%chk=mol_007_E_scan_pt3.chk
%nprocshared=8
%mem=16GB
#p wB97XD/6-311+G(d,p) Geom=Check Guess=Read Stable=Opt Pop=NBO7Read Density=Current scrf=(smd,solvent=water)

mol_007_E SP+NBO7/CMO after constrained opt at R0+0.15A  [oxime: C3=N2-O1]

1 1

$NBO CMO PRINT=2 E2PERT=0.05 BNDIDX $END

--Link1--
%chk=mol_007_E_scan_pt4.chk
%nprocshared=8
%mem=16GB
#p wB97XD/6-311+G(d,p) opt=(ModRedundant) SCF=(Tight,XQC) NoSymm scrf=(smd,solvent=water)

mol_007_E scan pt4 (R0+0.20A) rigid O-N displacement then constrained opt  [oxime: C3=N2-O1]

1 1
O        4.97626939     -0.59114313      0.00563594
N        3.37270800     -1.17293900      0.01075400
C        2.60477100     -0.14960500      0.00614700
C        2.93242600      1.31403000      0.00248900
C        1.57273200      2.03748000      0.00566100
C        0.55670800      0.93231300     -0.00427600
C       -0.82913400      1.03867700     -0.01893300
C       -1.57763900     -0.12932700     -0.02965500
C       -3.07958100     -0.04926900     -0.00397900
F       -3.65261300     -0.98777200     -0.77872100
F       -3.56495200     -0.23605000      1.24240600
F       -3.54506400      1.13782000     -0.42172700
C       -0.97768400     -1.39434000     -0.01685800
C        0.40016400     -1.50172400     -0.00355300
C        1.15149900     -0.32708100      0.00089700
H        5.38682539     -0.87316213     -0.83377706
H        5.45134639     -1.04655813      0.72576794
H        3.54082100      1.54889100      0.87802200
H        3.53214700      1.54670400     -0.87973600
H        1.45311800      2.66417600      0.89158400
H        1.45622900      2.68082400     -0.86839500
H       -1.30736500      2.01017500     -0.02434500
H       -1.58986600     -2.28767400     -0.02140500
H        0.87580000     -2.47444500      0.00064900

B 2 1 F

--Link1--
%chk=mol_007_E_scan_pt4.chk
%nprocshared=8
%mem=16GB
#p wB97XD/6-311+G(d,p) Geom=Check Guess=Read Stable=Opt Pop=NBO7Read Density=Current scrf=(smd,solvent=water)

mol_007_E SP+NBO7/CMO after constrained opt at R0+0.20A  [oxime: C3=N2-O1]

1 1

$NBO CMO PRINT=2 E2PERT=0.05 BNDIDX $END

--Link1--
%chk=mol_007_E_scan_pt5.chk
%nprocshared=8
%mem=16GB
#p wB97XD/6-311+G(d,p) opt=(ModRedundant) SCF=(Tight,XQC) NoSymm scrf=(smd,solvent=water)

mol_007_E scan pt5 (R0+0.25A) rigid O-N displacement then constrained opt  [oxime: C3=N2-O1]

1 1
O        5.02327124     -0.57409016      0.00548592
N        3.37270800     -1.17293900      0.01075400
C        2.60477100     -0.14960500      0.00614700
C        2.93242600      1.31403000      0.00248900
C        1.57273200      2.03748000      0.00566100
C        0.55670800      0.93231300     -0.00427600
C       -0.82913400      1.03867700     -0.01893300
C       -1.57763900     -0.12932700     -0.02965500
C       -3.07958100     -0.04926900     -0.00397900
F       -3.65261300     -0.98777200     -0.77872100
F       -3.56495200     -0.23605000      1.24240600
F       -3.54506400      1.13782000     -0.42172700
C       -0.97768400     -1.39434000     -0.01685800
C        0.40016400     -1.50172400     -0.00355300
C        1.15149900     -0.32708100      0.00089700
H        5.43382724     -0.85610916     -0.83392708
H        5.49834824     -1.02950516      0.72561792
H        3.54082100      1.54889100      0.87802200
H        3.53214700      1.54670400     -0.87973600
H        1.45311800      2.66417600      0.89158400
H        1.45622900      2.68082400     -0.86839500
H       -1.30736500      2.01017500     -0.02434500
H       -1.58986600     -2.28767400     -0.02140500
H        0.87580000     -2.47444500      0.00064900

B 2 1 F

--Link1--
%chk=mol_007_E_scan_pt5.chk
%nprocshared=8
%mem=16GB
#p wB97XD/6-311+G(d,p) Geom=Check Guess=Read Stable=Opt Pop=NBO7Read Density=Current scrf=(smd,solvent=water)

mol_007_E SP+NBO7/CMO after constrained opt at R0+0.25A  [oxime: C3=N2-O1]

1 1

$NBO CMO PRINT=2 E2PERT=0.05 BNDIDX $END

--Link1--
%chk=mol_007_E_scan_pt6.chk
%nprocshared=8
%mem=16GB
#p wB97XD/6-311+G(d,p) opt=(ModRedundant) SCF=(Tight,XQC) NoSymm scrf=(smd,solvent=water)

mol_007_E scan pt6 (R0+0.30A) rigid O-N displacement then constrained opt  [oxime: C3=N2-O1]

1 1
O        5.07027309     -0.55703719      0.00533591
N        3.37270800     -1.17293900      0.01075400
C        2.60477100     -0.14960500      0.00614700
C        2.93242600      1.31403000      0.00248900
C        1.57273200      2.03748000      0.00566100
C        0.55670800      0.93231300     -0.00427600
C       -0.82913400      1.03867700     -0.01893300
C       -1.57763900     -0.12932700     -0.02965500
C       -3.07958100     -0.04926900     -0.00397900
F       -3.65261300     -0.98777200     -0.77872100
F       -3.56495200     -0.23605000      1.24240600
F       -3.54506400      1.13782000     -0.42172700
C       -0.97768400     -1.39434000     -0.01685800
C        0.40016400     -1.50172400     -0.00355300
C        1.15149900     -0.32708100      0.00089700
H        5.48082909     -0.83905619     -0.83407709
H        5.54535009     -1.01245219      0.72546791
H        3.54082100      1.54889100      0.87802200
H        3.53214700      1.54670400     -0.87973600
H        1.45311800      2.66417600      0.89158400
H        1.45622900      2.68082400     -0.86839500
H       -1.30736500      2.01017500     -0.02434500
H       -1.58986600     -2.28767400     -0.02140500
H        0.87580000     -2.47444500      0.00064900

B 2 1 F

--Link1--
%chk=mol_007_E_scan_pt6.chk
%nprocshared=8
%mem=16GB
#p wB97XD/6-311+G(d,p) Geom=Check Guess=Read Stable=Opt Pop=NBO7Read Density=Current scrf=(smd,solvent=water)

mol_007_E SP+NBO7/CMO after constrained opt at R0+0.30A  [oxime: C3=N2-O1]

1 1

$NBO CMO PRINT=2 E2PERT=0.05 BNDIDX $END


