%chk=mol_022_E.chk
%nprocshared=8
%mem=16GB
#p wB97XD/6-311+G(d,p) sp pop=nboread

mol_022_E  [oxime: C3=N2-O1]

1 1
O       -2.69990000      2.41480000      0.21730000
N       -1.06130000      2.09640000     -0.03060000
C       -0.90650000      0.82750000      0.00890000
C       -1.97520000     -0.21290000      0.18480000
C       -1.48780000     -1.61530000     -0.12960000
C       -0.17650000     -1.89470000      0.57670000
C        0.86740000     -0.90090000      0.17400000
C        2.19850000     -1.27600000      0.07530000
C        3.14760000     -0.34220000     -0.30110000
F        4.42270000     -0.71860000     -0.39180000
C        2.81830000      0.97740000     -0.58840000
C        1.50000000      1.35800000     -0.48760000
C        0.50890000      0.43340000     -0.11230000
H       -2.64200000      3.09530000      0.91580000
H       -2.92790000      2.87710000     -0.61250000
H       -2.83840000      0.05320000     -0.42150000
H       -2.29540000     -0.13650000      1.22530000
H       -2.24780000     -2.32630000      0.18050000
H       -1.35540000     -1.72750000     -1.20570000
H       -0.32660000     -1.84090000      1.65940000
H        0.15530000     -2.90810000      0.36630000
H        2.50250000     -2.29150000      0.28480000
H        3.58940000      1.67480000     -0.88020000
H        1.22990000      2.38370000     -0.70790000
$NBO E2PERT BNDIDX NBOSUM $END


