%chk=mol_007_Z_scan_pt1.chk
%nprocshared=8
%mem=16GB
#p wB97XD/6-311+G(d,p) opt=(ModRedundant) SCF=(Tight,XQC) NoSymm scrf=(smd,solvent=water)

mol_007_Z scan pt1 (R0+0.05A) rigid O-N displacement then constrained opt  [oxime: C3=N2-O1]

1 1
O       -3.40916239     -2.02430679     -0.11581151
N       -3.80955300     -0.52384600     -0.01785800
C       -2.74629400      0.18255200      0.06522500
C       -2.93320200      1.67391400      0.19558100
C       -1.55591500      2.27204100     -0.13133400
C       -0.62532200      1.09856800     -0.05295100
C        0.76301300      1.11830100     -0.08779100
C        1.43974600     -0.08997300     -0.02047300
C        2.94404300     -0.10984800     -0.00894000
F        3.42591300     -0.32333800      1.23370300
F        3.48426100      1.03987500     -0.43887400
F        3.44345600     -1.09007000     -0.78347800
C        0.76128700     -1.30732700      0.08531600
C       -0.62063700     -1.33128200      0.11485400
C       -1.31010200     -0.11633100      0.04536900
H       -3.42775639     -2.29185979     -1.05499051
H       -4.10813839     -2.52511479      0.34233349
H       -3.20313300      1.87382000      1.23631200
H       -3.73904200      2.03899600     -0.43902100
H       -1.27213300      3.06453600      0.56181800
H       -1.53898600      2.69145900     -1.14048600
H        1.29701200      2.05718200     -0.16366400
H        1.31497400     -2.23623000      0.14514300
H       -1.13633600     -2.27543100      0.20128200

B 2 1 F

--Link1--
%chk=mol_007_Z_scan_pt1.chk
%nprocshared=8
%mem=16GB
#p wB97XD/6-311+G(d,p) Geom=Check Guess=Read Stable=Opt Pop=NBO7Read Density=Current scrf=(smd,solvent=water)

mol_007_Z SP+NBO7/CMO after constrained opt at R0+0.05A  [oxime: C3=N2-O1]

1 1

$NBO CMO PRINT=2 E2PERT=0.05 BNDIDX $END

--Link1--
%chk=mol_007_Z_scan_pt2.chk
%nprocshared=8
%mem=16GB
#p wB97XD/6-311+G(d,p) opt=(ModRedundant) SCF=(Tight,XQC) NoSymm scrf=(smd,solvent=water)

mol_007_Z scan pt2 (R0+0.10A) rigid O-N displacement then constrained opt  [oxime: C3=N2-O1]

1 1
O       -3.39629677     -2.07252057     -0.11895901
N       -3.80955300     -0.52384600     -0.01785800
C       -2.74629400      0.18255200      0.06522500
C       -2.93320200      1.67391400      0.19558100
C       -1.55591500      2.27204100     -0.13133400
C       -0.62532200      1.09856800     -0.05295100
C        0.76301300      1.11830100     -0.08779100
C        1.43974600     -0.08997300     -0.02047300
C        2.94404300     -0.10984800     -0.00894000
F        3.42591300     -0.32333800      1.23370300
F        3.48426100      1.03987500     -0.43887400
F        3.44345600     -1.09007000     -0.78347800
C        0.76128700     -1.30732700      0.08531600
C       -0.62063700     -1.33128200      0.11485400
C       -1.31010200     -0.11633100      0.04536900
H       -3.41489077     -2.34007357     -1.05813801
H       -4.09527277     -2.57332857      0.33918599
H       -3.20313300      1.87382000      1.23631200
H       -3.73904200      2.03899600     -0.43902100
H       -1.27213300      3.06453600      0.56181800
H       -1.53898600      2.69145900     -1.14048600
H        1.29701200      2.05718200     -0.16366400
H        1.31497400     -2.23623000      0.14514300
H       -1.13633600     -2.27543100      0.20128200

B 2 1 F

--Link1--
%chk=mol_007_Z_scan_pt2.chk
%nprocshared=8
%mem=16GB
#p wB97XD/6-311+G(d,p) Geom=Check Guess=Read Stable=Opt Pop=NBO7Read Density=Current scrf=(smd,solvent=water)

mol_007_Z SP+NBO7/CMO after constrained opt at R0+0.10A  [oxime: C3=N2-O1]

1 1

$NBO CMO PRINT=2 E2PERT=0.05 BNDIDX $END

--Link1--
%chk=mol_007_Z_scan_pt3.chk
%nprocshared=8
%mem=16GB
#p wB97XD/6-311+G(d,p) opt=(ModRedundant) SCF=(Tight,XQC) NoSymm scrf=(smd,solvent=water)

mol_007_Z scan pt3 (R0+0.15A) rigid O-N displacement then constrained opt  [oxime: C3=N2-O1]

1 1
O       -3.38343116     -2.12073436     -0.12210652
N       -3.80955300     -0.52384600     -0.01785800
C       -2.74629400      0.18255200      0.06522500
C       -2.93320200      1.67391400      0.19558100
C       -1.55591500      2.27204100     -0.13133400
C       -0.62532200      1.09856800     -0.05295100
C        0.76301300      1.11830100     -0.08779100
C        1.43974600     -0.08997300     -0.02047300
C        2.94404300     -0.10984800     -0.00894000
F        3.42591300     -0.32333800      1.23370300
F        3.48426100      1.03987500     -0.43887400
F        3.44345600     -1.09007000     -0.78347800
C        0.76128700     -1.30732700      0.08531600
C       -0.62063700     -1.33128200      0.11485400
C       -1.31010200     -0.11633100      0.04536900
H       -3.40202516     -2.38828736     -1.06128552
H       -4.08240716     -2.62154236      0.33603848
H       -3.20313300      1.87382000      1.23631200
H       -3.73904200      2.03899600     -0.43902100
H       -1.27213300      3.06453600      0.56181800
H       -1.53898600      2.69145900     -1.14048600
H        1.29701200      2.05718200     -0.16366400
H        1.31497400     -2.23623000      0.14514300
H       -1.13633600     -2.27543100      0.20128200

B 2 1 F

--Link1--
%chk=mol_007_Z_scan_pt3.chk
%nprocshared=8
%mem=16GB
#p wB97XD/6-311+G(d,p) Geom=Check Guess=Read Stable=Opt Pop=NBO7Read Density=Current scrf=(smd,solvent=water)

mol_007_Z SP+NBO7/CMO after constrained opt at R0+0.15A  [oxime: C3=N2-O1]

1 1

$NBO CMO PRINT=2 E2PERT=0.05 BNDIDX $END

--Link1--
%chk=mol_007_Z_scan_pt4.chk
%nprocshared=8
%mem=16GB
#p wB97XD/6-311+G(d,p) opt=(ModRedundant) SCF=(Tight,XQC) NoSymm scrf=(smd,solvent=water)

mol_007_Z scan pt4 (R0+0.20A) rigid O-N displacement then constrained opt  [oxime: C3=N2-O1]

1 1
O       -3.37056555     -2.16894815     -0.12525402
N       -3.80955300     -0.52384600     -0.01785800
C       -2.74629400      0.18255200      0.06522500
C       -2.93320200      1.67391400      0.19558100
C       -1.55591500      2.27204100     -0.13133400
C       -0.62532200      1.09856800     -0.05295100
C        0.76301300      1.11830100     -0.08779100
C        1.43974600     -0.08997300     -0.02047300
C        2.94404300     -0.10984800     -0.00894000
F        3.42591300     -0.32333800      1.23370300
F        3.48426100      1.03987500     -0.43887400
F        3.44345600     -1.09007000     -0.78347800
C        0.76128700     -1.30732700      0.08531600
C       -0.62063700     -1.33128200      0.11485400
C       -1.31010200     -0.11633100      0.04536900
H       -3.38915955     -2.43650115     -1.06443302
H       -4.06954155     -2.66975615      0.33289098
H       -3.20313300      1.87382000      1.23631200
H       -3.73904200      2.03899600     -0.43902100
H       -1.27213300      3.06453600      0.56181800
H       -1.53898600      2.69145900     -1.14048600
H        1.29701200      2.05718200     -0.16366400
H        1.31497400     -2.23623000      0.14514300
H       -1.13633600     -2.27543100      0.20128200

B 2 1 F

--Link1--
%chk=mol_007_Z_scan_pt4.chk
%nprocshared=8
%mem=16GB
#p wB97XD/6-311+G(d,p) Geom=Check Guess=Read Stable=Opt Pop=NBO7Read Density=Current scrf=(smd,solvent=water)

mol_007_Z SP+NBO7/CMO after constrained opt at R0+0.20A  [oxime: C3=N2-O1]

1 1

$NBO CMO PRINT=2 E2PERT=0.05 BNDIDX $END

--Link1--
%chk=mol_007_Z_scan_pt5.chk
%nprocshared=8
%mem=16GB
#p wB97XD/6-311+G(d,p) opt=(ModRedundant) SCF=(Tight,XQC) NoSymm scrf=(smd,solvent=water)

mol_007_Z scan pt5 (R0+0.25A) rigid O-N displacement then constrained opt  [oxime: C3=N2-O1]

1 1
O       -3.35769994     -2.21716193     -0.12840153
N       -3.80955300     -0.52384600     -0.01785800
C       -2.74629400      0.18255200      0.06522500
C       -2.93320200      1.67391400      0.19558100
C       -1.55591500      2.27204100     -0.13133400
C       -0.62532200      1.09856800     -0.05295100
C        0.76301300      1.11830100     -0.08779100
C        1.43974600     -0.08997300     -0.02047300
C        2.94404300     -0.10984800     -0.00894000
F        3.42591300     -0.32333800      1.23370300
F        3.48426100      1.03987500     -0.43887400
F        3.44345600     -1.09007000     -0.78347800
C        0.76128700     -1.30732700      0.08531600
C       -0.62063700     -1.33128200      0.11485400
C       -1.31010200     -0.11633100      0.04536900
H       -3.37629394     -2.48471493     -1.06758053
H       -4.05667594     -2.71796993      0.32974347
H       -3.20313300      1.87382000      1.23631200
H       -3.73904200      2.03899600     -0.43902100
H       -1.27213300      3.06453600      0.56181800
H       -1.53898600      2.69145900     -1.14048600
H        1.29701200      2.05718200     -0.16366400
H        1.31497400     -2.23623000      0.14514300
H       -1.13633600     -2.27543100      0.20128200

B 2 1 F

--Link1--
%chk=mol_007_Z_scan_pt5.chk
%nprocshared=8
%mem=16GB
#p wB97XD/6-311+G(d,p) Geom=Check Guess=Read Stable=Opt Pop=NBO7Read Density=Current scrf=(smd,solvent=water)

mol_007_Z SP+NBO7/CMO after constrained opt at R0+0.25A  [oxime: C3=N2-O1]

1 1

$NBO CMO PRINT=2 E2PERT=0.05 BNDIDX $END

--Link1--
%chk=mol_007_Z_scan_pt6.chk
%nprocshared=8
%mem=16GB
#p wB97XD/6-311+G(d,p) opt=(ModRedundant) SCF=(Tight,XQC) NoSymm scrf=(smd,solvent=water)

mol_007_Z scan pt6 (R0+0.30A) rigid O-N displacement then constrained opt  [oxime: C3=N2-O1]

1 1
O       -3.34483432     -2.26537572     -0.13154904
N       -3.80955300     -0.52384600     -0.01785800
C       -2.74629400      0.18255200      0.06522500
C       -2.93320200      1.67391400      0.19558100
C       -1.55591500      2.27204100     -0.13133400
C       -0.62532200      1.09856800     -0.05295100
C        0.76301300      1.11830100     -0.08779100
C        1.43974600     -0.08997300     -0.02047300
C        2.94404300     -0.10984800     -0.00894000
F        3.42591300     -0.32333800      1.23370300
F        3.48426100      1.03987500     -0.43887400
F        3.44345600     -1.09007000     -0.78347800
C        0.76128700     -1.30732700      0.08531600
C       -0.62063700     -1.33128200      0.11485400
C       -1.31010200     -0.11633100      0.04536900
H       -3.36342832     -2.53292872     -1.07072804
H       -4.04381032     -2.76618372      0.32659596
H       -3.20313300      1.87382000      1.23631200
H       -3.73904200      2.03899600     -0.43902100
H       -1.27213300      3.06453600      0.56181800
H       -1.53898600      2.69145900     -1.14048600
H        1.29701200      2.05718200     -0.16366400
H        1.31497400     -2.23623000      0.14514300
H       -1.13633600     -2.27543100      0.20128200

B 2 1 F

--Link1--
%chk=mol_007_Z_scan_pt6.chk
%nprocshared=8
%mem=16GB
#p wB97XD/6-311+G(d,p) Geom=Check Guess=Read Stable=Opt Pop=NBO7Read Density=Current scrf=(smd,solvent=water)

mol_007_Z SP+NBO7/CMO after constrained opt at R0+0.30A  [oxime: C3=N2-O1]

1 1

$NBO CMO PRINT=2 E2PERT=0.05 BNDIDX $END


