%chk=mol_026_E.chk
%nprocshared=8
%mem=16GB
#p wB97XD/6-311+G(d,p) sp pop=nboread

mol_026_E  [oxime: C3=N2-O1]

1 1
O        3.35040000      1.30870000      0.39740000
N        1.68610000      1.58500000      0.23740000
C        1.12710000      0.45480000      0.03640000
C        1.79100000     -0.88400000     -0.09350000
C        0.87780000     -1.93130000     -0.70370000
C       -0.46220000     -1.94810000      0.00420000
C       -1.11830000     -0.60470000     -0.04550000
C       -2.50550000     -0.48520000     -0.09970000
C       -3.12620000      0.74870000     -0.14690000
C       -2.34090000      1.89690000     -0.13820000
F       -2.94280000      3.09180000     -0.18590000
C       -0.96600000      1.83290000     -0.08070000
C       -0.34800000      0.57430000     -0.03710000
H        3.52020000      1.80880000      1.21950000
H        3.68820000      1.85720000     -0.33740000
H        2.08640000     -1.16480000      0.91930000
H        2.71090000     -0.77390000     -0.66220000
H        0.73180000     -1.72110000     -1.76350000
H        1.36110000     -2.90120000     -0.63120000
H       -1.10650000     -2.70460000     -0.43660000
H       -0.32110000     -2.24190000      1.04920000
H       -3.11230000     -1.37920000     -0.10990000
H       -4.20190000      0.83690000     -0.19040000
H       -0.37950000      2.74380000     -0.07500000
$NBO E2PERT BNDIDX NBOSUM $END


