%chk=oxime_001_modred_scan_00.chk
%nprocs=4
%mem=4GB
#p wb97xd/6-31G(d) SCRF=(SMD,Solvent=Water) Opt=ModRedundant SCF=(Tight,XQC) NoSymm

Constrained Opt=ModRedundant at r0; freeze bond 1-2 target ~ 1.5122 A

1 1
O        -2.92963000        1.62889700       -0.24275800
N        -1.43611800        1.85334800       -0.16665400
C        -0.85690600        0.70431300       -0.07377800
C        -1.50135100       -0.65879900       -0.02470500
C        -0.58398200       -1.76836500       -0.55540800
C         0.77952000       -1.79880300        0.14561300
C         1.29722000       -0.41072300        0.17310000
C         0.58326600        0.74959500        0.05516300
C         1.53019800        1.83105300        0.14956500
C         2.73161800        1.24118400        0.31753000
O         2.60242400       -0.13333300        0.33381100
H        -3.32178200        2.48674500        0.02813000
H        -1.74784800       -0.83904300        1.03047900
H        -2.44009000       -0.66107100       -0.57985500
H        -1.09109600       -2.72706700       -0.42419300
H        -0.43185000       -1.61985800       -1.62986300
H         1.47708200       -2.45880000       -0.37770200
H         0.67800400       -2.17287300        1.17262800
H         1.33245900        2.89167600        0.10024800
H         3.73801500        1.61187600        0.43368800
H        -3.17902500        1.49818400       -1.18560500

B 1 2 F

--Link1--
%chk=oxime_001_modred_scan_00.chk
%nprocs=4
%mem=4GB
#p wb97xd/6-31G(d) Geom=Check Guess=Read SCRF=(SMD,Solvent=Water) SCF=(Tight,XQC) Stable=Opt Pop=NBO7Read NoSymm Density=Current

SP + NBO7/CMO after constrained optimization at r0; bond 1-2 frozen during opt

1 1

$NBO
  CMO
  NBOMO=P120
  PRINT=2
  E2PERT=0.05
  BNDIDX
$END

--Link1--
%chk=oxime_001_modred_scan_01.chk
%nprocs=4
%mem=4GB
#p wb97xd/6-31G(d) SCRF=(SMD,Solvent=Water) Opt=ModRedundant SCF=(Tight,XQC) NoSymm

Constrained Opt=ModRedundant at r0_plus_0.1A; freeze bond 1-2 target ~ 1.6122 A

1 1
O        -3.02839420        1.61405432       -0.24779067
N        -1.43611800        1.85334800       -0.16665400
C        -0.85690600        0.70431300       -0.07377800
C        -1.50135100       -0.65879900       -0.02470500
C        -0.58398200       -1.76836500       -0.55540800
C         0.77952000       -1.79880300        0.14561300
C         1.29722000       -0.41072300        0.17310000
C         0.58326600        0.74959500        0.05516300
C         1.53019800        1.83105300        0.14956500
C         2.73161800        1.24118400        0.31753000
O         2.60242400       -0.13333300        0.33381100
H        -3.32178200        2.48674500        0.02813000
H        -1.74784800       -0.83904300        1.03047900
H        -2.44009000       -0.66107100       -0.57985500
H        -1.09109600       -2.72706700       -0.42419300
H        -0.43185000       -1.61985800       -1.62986300
H         1.47708200       -2.45880000       -0.37770200
H         0.67800400       -2.17287300        1.17262800
H         1.33245900        2.89167600        0.10024800
H         3.73801500        1.61187600        0.43368800
H        -3.17902500        1.49818400       -1.18560500

B 1 2 F

--Link1--
%chk=oxime_001_modred_scan_01.chk
%nprocs=4
%mem=4GB
#p wb97xd/6-31G(d) Geom=Check Guess=Read SCRF=(SMD,Solvent=Water) SCF=(Tight,XQC) Stable=Opt Pop=NBO7Read NoSymm Density=Current

SP + NBO7/CMO after constrained optimization at r0_plus_0.1A; bond 1-2 frozen during opt

1 1

$NBO
  CMO
  NBOMO=P120
  PRINT=2
  E2PERT=0.05
  BNDIDX
$END

--Link1--
%chk=oxime_001_modred_scan_02.chk
%nprocs=4
%mem=4GB
#p wb97xd/6-31G(d) SCRF=(SMD,Solvent=Water) Opt=ModRedundant SCF=(Tight,XQC) NoSymm

Constrained Opt=ModRedundant at r0_plus_0.2A; freeze bond 1-2 target ~ 1.7122 A

1 1
O        -3.12715840        1.59921164       -0.25282334
N        -1.43611800        1.85334800       -0.16665400
C        -0.85690600        0.70431300       -0.07377800
C        -1.50135100       -0.65879900       -0.02470500
C        -0.58398200       -1.76836500       -0.55540800
C         0.77952000       -1.79880300        0.14561300
C         1.29722000       -0.41072300        0.17310000
C         0.58326600        0.74959500        0.05516300
C         1.53019800        1.83105300        0.14956500
C         2.73161800        1.24118400        0.31753000
O         2.60242400       -0.13333300        0.33381100
H        -3.32178200        2.48674500        0.02813000
H        -1.74784800       -0.83904300        1.03047900
H        -2.44009000       -0.66107100       -0.57985500
H        -1.09109600       -2.72706700       -0.42419300
H        -0.43185000       -1.61985800       -1.62986300
H         1.47708200       -2.45880000       -0.37770200
H         0.67800400       -2.17287300        1.17262800
H         1.33245900        2.89167600        0.10024800
H         3.73801500        1.61187600        0.43368800
H        -3.17902500        1.49818400       -1.18560500

B 1 2 F

--Link1--
%chk=oxime_001_modred_scan_02.chk
%nprocs=4
%mem=4GB
#p wb97xd/6-31G(d) Geom=Check Guess=Read SCRF=(SMD,Solvent=Water) SCF=(Tight,XQC) Stable=Opt Pop=NBO7Read NoSymm Density=Current

SP + NBO7/CMO after constrained optimization at r0_plus_0.2A; bond 1-2 frozen during opt

1 1

$NBO
  CMO
  NBOMO=P120
  PRINT=2
  E2PERT=0.05
  BNDIDX
$END

--Link1--
%chk=oxime_001_modred_scan_03.chk
%nprocs=4
%mem=4GB
#p wb97xd/6-31G(d) SCRF=(SMD,Solvent=Water) Opt=ModRedundant SCF=(Tight,XQC) NoSymm

Constrained Opt=ModRedundant at r0_plus_0.3A; freeze bond 1-2 target ~ 1.8122 A

1 1
O        -3.22592260        1.58436895       -0.25785601
N        -1.43611800        1.85334800       -0.16665400
C        -0.85690600        0.70431300       -0.07377800
C        -1.50135100       -0.65879900       -0.02470500
C        -0.58398200       -1.76836500       -0.55540800
C         0.77952000       -1.79880300        0.14561300
C         1.29722000       -0.41072300        0.17310000
C         0.58326600        0.74959500        0.05516300
C         1.53019800        1.83105300        0.14956500
C         2.73161800        1.24118400        0.31753000
O         2.60242400       -0.13333300        0.33381100
H        -3.32178200        2.48674500        0.02813000
H        -1.74784800       -0.83904300        1.03047900
H        -2.44009000       -0.66107100       -0.57985500
H        -1.09109600       -2.72706700       -0.42419300
H        -0.43185000       -1.61985800       -1.62986300
H         1.47708200       -2.45880000       -0.37770200
H         0.67800400       -2.17287300        1.17262800
H         1.33245900        2.89167600        0.10024800
H         3.73801500        1.61187600        0.43368800
H        -3.17902500        1.49818400       -1.18560500

B 1 2 F

--Link1--
%chk=oxime_001_modred_scan_03.chk
%nprocs=4
%mem=4GB
#p wb97xd/6-31G(d) Geom=Check Guess=Read SCRF=(SMD,Solvent=Water) SCF=(Tight,XQC) Stable=Opt Pop=NBO7Read NoSymm Density=Current

SP + NBO7/CMO after constrained optimization at r0_plus_0.3A; bond 1-2 frozen during opt

1 1

$NBO
  CMO
  NBOMO=P120
  PRINT=2
  E2PERT=0.05
  BNDIDX
$END

--Link1--
%chk=oxime_001_modred_scan_04.chk
%nprocs=4
%mem=4GB
#p wb97xd/6-31G(d) SCRF=(SMD,Solvent=Water) Opt=ModRedundant SCF=(Tight,XQC) NoSymm

Constrained Opt=ModRedundant at r0_plus_0.4A; freeze bond 1-2 target ~ 1.9122 A

1 1
O        -3.32468680        1.56952627       -0.26288867
N        -1.43611800        1.85334800       -0.16665400
C        -0.85690600        0.70431300       -0.07377800
C        -1.50135100       -0.65879900       -0.02470500
C        -0.58398200       -1.76836500       -0.55540800
C         0.77952000       -1.79880300        0.14561300
C         1.29722000       -0.41072300        0.17310000
C         0.58326600        0.74959500        0.05516300
C         1.53019800        1.83105300        0.14956500
C         2.73161800        1.24118400        0.31753000
O         2.60242400       -0.13333300        0.33381100
H        -3.32178200        2.48674500        0.02813000
H        -1.74784800       -0.83904300        1.03047900
H        -2.44009000       -0.66107100       -0.57985500
H        -1.09109600       -2.72706700       -0.42419300
H        -0.43185000       -1.61985800       -1.62986300
H         1.47708200       -2.45880000       -0.37770200
H         0.67800400       -2.17287300        1.17262800
H         1.33245900        2.89167600        0.10024800
H         3.73801500        1.61187600        0.43368800
H        -3.17902500        1.49818400       -1.18560500

B 1 2 F

--Link1--
%chk=oxime_001_modred_scan_04.chk
%nprocs=4
%mem=4GB
#p wb97xd/6-31G(d) Geom=Check Guess=Read SCRF=(SMD,Solvent=Water) SCF=(Tight,XQC) Stable=Opt Pop=NBO7Read NoSymm Density=Current

SP + NBO7/CMO after constrained optimization at r0_plus_0.4A; bond 1-2 frozen during opt

1 1

$NBO
  CMO
  NBOMO=P120
  PRINT=2
  E2PERT=0.05
  BNDIDX
$END

