%chk=mol_018_Z.chk
%nprocshared=8
%mem=16GB
#p wB97XD/6-311+G(d,p) sp pop=nboread

mol_018_Z  [oxime: C12=N13-O14]

1 1
O       -3.99260000      1.42670000      0.21320000
N       -3.20560000      0.49690000      0.29650000
O       -3.50090000     -0.67360000      0.51430000
C       -1.76550000      0.80570000      0.12680000
C       -1.39780000      2.13940000      0.06620000
C       -0.06720000      2.50340000     -0.08370000
C        0.91180000      1.53150000     -0.16970000
C        0.53450000      0.18860000     -0.09310000
C       -0.81240000     -0.20070000      0.03420000
C       -0.98230000     -1.68410000      0.05420000
C        0.43440000     -2.24280000     -0.20220000
C        1.34690000     -1.02250000     -0.13600000
N        2.56010000     -1.39360000     -0.10640000
O        3.57270000     -0.02150000     -0.04310000
H       -2.17310000      2.88580000      0.13640000
H        0.19870000      3.54770000     -0.13530000
H        1.93900000      1.83240000     -0.30890000
H       -1.37600000     -2.00920000      1.01480000
H       -1.69990000     -2.01610000     -0.69090000
H        0.52180000     -2.68290000     -1.19350000
H        0.73900000     -3.00150000      0.51290000
H        3.94600000     -0.09530000      0.85750000
H        4.26820000     -0.31370000     -0.66440000
$NBO E2PERT BNDIDX NBOSUM $END


