%chk=mol_023_Z_scan_pt1.chk
%nprocshared=8
%mem=16GB
#p wB97XD/6-311+G(d,p) opt=(ModRedundant) SCF=(Tight,XQC) NoSymm scrf=(smd,solvent=water)

mol_023_Z scan pt1 (R0+0.05A) rigid O-N displacement then constrained opt  [oxime: C13=N14-O15]

1 1
O       -3.88605400     -0.99173600      0.53656800
N       -3.40392600      0.01478900      0.04986900
O       -4.06654100      0.95138100     -0.35810700
C       -1.94045600      0.10698200     -0.04953700
C       -1.37246600      1.33398500     -0.35983800
C        0.00450400      1.41159400     -0.41746000
C        0.79086600      0.27532600     -0.18628100
C        0.19557900     -0.97214100      0.06003600
C       -1.19331200     -1.03588700      0.15262500
C        0.98945400     -2.25167700      0.16790100
C        2.49918000     -2.04723500      0.22061600
C        2.93520000     -0.94169400     -0.74775100
C        2.26668200      0.31241400     -0.27239500
N        3.09606800      1.21651100      0.08905100
O        2.33948893      2.41690991      0.73734338
H       -1.98741400      2.20426600     -0.54092100
H        0.46561900      2.35613600     -0.66519500
H       -1.67959400     -1.98045900      0.36088100
H        0.64602900     -2.81514200      1.03820300
H        0.73420300     -2.85283700     -0.71207000
H        2.81292200     -1.77632300      1.23328400
H        3.00996600     -2.97484500     -0.04132000
H        4.01733700     -0.81827500     -0.75818800
H        2.58766300     -1.15797700     -1.76243100
H        2.22219393      2.23614391      1.69064138
H        2.93706193      3.18251491      0.65853538

B 14 15 F

--Link1--
%chk=mol_023_Z_scan_pt1.chk
%nprocshared=8
%mem=16GB
#p wB97XD/6-311+G(d,p) Geom=Check Guess=Read Stable=Opt Pop=NBO7Read Density=Current scrf=(smd,solvent=water)

mol_023_Z SP+NBO7/CMO after constrained opt at R0+0.05A  [oxime: C13=N14-O15]

1 1

$NBO CMO PRINT=2 E2PERT=0.05 BNDIDX $END

--Link1--
%chk=mol_023_Z_scan_pt2.chk
%nprocshared=8
%mem=16GB
#p wB97XD/6-311+G(d,p) opt=(ModRedundant) SCF=(Tight,XQC) NoSymm scrf=(smd,solvent=water)

mol_023_Z scan pt2 (R0+0.10A) rigid O-N displacement then constrained opt  [oxime: C13=N14-O15]

1 1
O       -3.88605400     -0.99173600      0.53656800
N       -3.40392600      0.01478900      0.04986900
O       -4.06654100      0.95138100     -0.35810700
C       -1.94045600      0.10698200     -0.04953700
C       -1.37246600      1.33398500     -0.35983800
C        0.00450400      1.41159400     -0.41746000
C        0.79086600      0.27532600     -0.18628100
C        0.19557900     -0.97214100      0.06003600
C       -1.19331200     -1.03588700      0.15262500
C        0.98945400     -2.25167700      0.16790100
C        2.49918000     -2.04723500      0.22061600
C        2.93520000     -0.94169400     -0.74775100
C        2.26668200      0.31241400     -0.27239500
N        3.09606800      1.21651100      0.08905100
O        2.31523986      2.45538382      0.75812176
H       -1.98741400      2.20426600     -0.54092100
H        0.46561900      2.35613600     -0.66519500
H       -1.67959400     -1.98045900      0.36088100
H        0.64602900     -2.81514200      1.03820300
H        0.73420300     -2.85283700     -0.71207000
H        2.81292200     -1.77632300      1.23328400
H        3.00996600     -2.97484500     -0.04132000
H        4.01733700     -0.81827500     -0.75818800
H        2.58766300     -1.15797700     -1.76243100
H        2.19794486      2.27461782      1.71141976
H        2.91281286      3.22098882      0.67931376

B 14 15 F

--Link1--
%chk=mol_023_Z_scan_pt2.chk
%nprocshared=8
%mem=16GB
#p wB97XD/6-311+G(d,p) Geom=Check Guess=Read Stable=Opt Pop=NBO7Read Density=Current scrf=(smd,solvent=water)

mol_023_Z SP+NBO7/CMO after constrained opt at R0+0.10A  [oxime: C13=N14-O15]

1 1

$NBO CMO PRINT=2 E2PERT=0.05 BNDIDX $END

--Link1--
%chk=mol_023_Z_scan_pt3.chk
%nprocshared=8
%mem=16GB
#p wB97XD/6-311+G(d,p) opt=(ModRedundant) SCF=(Tight,XQC) NoSymm scrf=(smd,solvent=water)

mol_023_Z scan pt3 (R0+0.15A) rigid O-N displacement then constrained opt  [oxime: C13=N14-O15]

1 1
O       -3.88605400     -0.99173600      0.53656800
N       -3.40392600      0.01478900      0.04986900
O       -4.06654100      0.95138100     -0.35810700
C       -1.94045600      0.10698200     -0.04953700
C       -1.37246600      1.33398500     -0.35983800
C        0.00450400      1.41159400     -0.41746000
C        0.79086600      0.27532600     -0.18628100
C        0.19557900     -0.97214100      0.06003600
C       -1.19331200     -1.03588700      0.15262500
C        0.98945400     -2.25167700      0.16790100
C        2.49918000     -2.04723500      0.22061600
C        2.93520000     -0.94169400     -0.74775100
C        2.26668200      0.31241400     -0.27239500
N        3.09606800      1.21651100      0.08905100
O        2.29099080      2.49385773      0.77890013
H       -1.98741400      2.20426600     -0.54092100
H        0.46561900      2.35613600     -0.66519500
H       -1.67959400     -1.98045900      0.36088100
H        0.64602900     -2.81514200      1.03820300
H        0.73420300     -2.85283700     -0.71207000
H        2.81292200     -1.77632300      1.23328400
H        3.00996600     -2.97484500     -0.04132000
H        4.01733700     -0.81827500     -0.75818800
H        2.58766300     -1.15797700     -1.76243100
H        2.17369580      2.31309173      1.73219813
H        2.88856380      3.25946273      0.70009213

B 14 15 F

--Link1--
%chk=mol_023_Z_scan_pt3.chk
%nprocshared=8
%mem=16GB
#p wB97XD/6-311+G(d,p) Geom=Check Guess=Read Stable=Opt Pop=NBO7Read Density=Current scrf=(smd,solvent=water)

mol_023_Z SP+NBO7/CMO after constrained opt at R0+0.15A  [oxime: C13=N14-O15]

1 1

$NBO CMO PRINT=2 E2PERT=0.05 BNDIDX $END

--Link1--
%chk=mol_023_Z_scan_pt4.chk
%nprocshared=8
%mem=16GB
#p wB97XD/6-311+G(d,p) opt=(ModRedundant) SCF=(Tight,XQC) NoSymm scrf=(smd,solvent=water)

mol_023_Z scan pt4 (R0+0.20A) rigid O-N displacement then constrained opt  [oxime: C13=N14-O15]

1 1
O       -3.88605400     -0.99173600      0.53656800
N       -3.40392600      0.01478900      0.04986900
O       -4.06654100      0.95138100     -0.35810700
C       -1.94045600      0.10698200     -0.04953700
C       -1.37246600      1.33398500     -0.35983800
C        0.00450400      1.41159400     -0.41746000
C        0.79086600      0.27532600     -0.18628100
C        0.19557900     -0.97214100      0.06003600
C       -1.19331200     -1.03588700      0.15262500
C        0.98945400     -2.25167700      0.16790100
C        2.49918000     -2.04723500      0.22061600
C        2.93520000     -0.94169400     -0.74775100
C        2.26668200      0.31241400     -0.27239500
N        3.09606800      1.21651100      0.08905100
O        2.26674173      2.53233164      0.79967851
H       -1.98741400      2.20426600     -0.54092100
H        0.46561900      2.35613600     -0.66519500
H       -1.67959400     -1.98045900      0.36088100
H        0.64602900     -2.81514200      1.03820300
H        0.73420300     -2.85283700     -0.71207000
H        2.81292200     -1.77632300      1.23328400
H        3.00996600     -2.97484500     -0.04132000
H        4.01733700     -0.81827500     -0.75818800
H        2.58766300     -1.15797700     -1.76243100
H        2.14944673      2.35156564      1.75297651
H        2.86431473      3.29793664      0.72087051

B 14 15 F

--Link1--
%chk=mol_023_Z_scan_pt4.chk
%nprocshared=8
%mem=16GB
#p wB97XD/6-311+G(d,p) Geom=Check Guess=Read Stable=Opt Pop=NBO7Read Density=Current scrf=(smd,solvent=water)

mol_023_Z SP+NBO7/CMO after constrained opt at R0+0.20A  [oxime: C13=N14-O15]

1 1

$NBO CMO PRINT=2 E2PERT=0.05 BNDIDX $END

--Link1--
%chk=mol_023_Z_scan_pt5.chk
%nprocshared=8
%mem=16GB
#p wB97XD/6-311+G(d,p) opt=(ModRedundant) SCF=(Tight,XQC) NoSymm scrf=(smd,solvent=water)

mol_023_Z scan pt5 (R0+0.25A) rigid O-N displacement then constrained opt  [oxime: C13=N14-O15]

1 1
O       -3.88605400     -0.99173600      0.53656800
N       -3.40392600      0.01478900      0.04986900
O       -4.06654100      0.95138100     -0.35810700
C       -1.94045600      0.10698200     -0.04953700
C       -1.37246600      1.33398500     -0.35983800
C        0.00450400      1.41159400     -0.41746000
C        0.79086600      0.27532600     -0.18628100
C        0.19557900     -0.97214100      0.06003600
C       -1.19331200     -1.03588700      0.15262500
C        0.98945400     -2.25167700      0.16790100
C        2.49918000     -2.04723500      0.22061600
C        2.93520000     -0.94169400     -0.74775100
C        2.26668200      0.31241400     -0.27239500
N        3.09606800      1.21651100      0.08905100
O        2.24249266      2.57080555      0.82045689
H       -1.98741400      2.20426600     -0.54092100
H        0.46561900      2.35613600     -0.66519500
H       -1.67959400     -1.98045900      0.36088100
H        0.64602900     -2.81514200      1.03820300
H        0.73420300     -2.85283700     -0.71207000
H        2.81292200     -1.77632300      1.23328400
H        3.00996600     -2.97484500     -0.04132000
H        4.01733700     -0.81827500     -0.75818800
H        2.58766300     -1.15797700     -1.76243100
H        2.12519766      2.39003955      1.77375489
H        2.84006566      3.33641055      0.74164889

B 14 15 F

--Link1--
%chk=mol_023_Z_scan_pt5.chk
%nprocshared=8
%mem=16GB
#p wB97XD/6-311+G(d,p) Geom=Check Guess=Read Stable=Opt Pop=NBO7Read Density=Current scrf=(smd,solvent=water)

mol_023_Z SP+NBO7/CMO after constrained opt at R0+0.25A  [oxime: C13=N14-O15]

1 1

$NBO CMO PRINT=2 E2PERT=0.05 BNDIDX $END

--Link1--
%chk=mol_023_Z_scan_pt6.chk
%nprocshared=8
%mem=16GB
#p wB97XD/6-311+G(d,p) opt=(ModRedundant) SCF=(Tight,XQC) NoSymm scrf=(smd,solvent=water)

mol_023_Z scan pt6 (R0+0.30A) rigid O-N displacement then constrained opt  [oxime: C13=N14-O15]

1 1
O       -3.88605400     -0.99173600      0.53656800
N       -3.40392600      0.01478900      0.04986900
O       -4.06654100      0.95138100     -0.35810700
C       -1.94045600      0.10698200     -0.04953700
C       -1.37246600      1.33398500     -0.35983800
C        0.00450400      1.41159400     -0.41746000
C        0.79086600      0.27532600     -0.18628100
C        0.19557900     -0.97214100      0.06003600
C       -1.19331200     -1.03588700      0.15262500
C        0.98945400     -2.25167700      0.16790100
C        2.49918000     -2.04723500      0.22061600
C        2.93520000     -0.94169400     -0.74775100
C        2.26668200      0.31241400     -0.27239500
N        3.09606800      1.21651100      0.08905100
O        2.21824359      2.60927946      0.84123527
H       -1.98741400      2.20426600     -0.54092100
H        0.46561900      2.35613600     -0.66519500
H       -1.67959400     -1.98045900      0.36088100
H        0.64602900     -2.81514200      1.03820300
H        0.73420300     -2.85283700     -0.71207000
H        2.81292200     -1.77632300      1.23328400
H        3.00996600     -2.97484500     -0.04132000
H        4.01733700     -0.81827500     -0.75818800
H        2.58766300     -1.15797700     -1.76243100
H        2.10094859      2.42851346      1.79453327
H        2.81581659      3.37488446      0.76242727

B 14 15 F

--Link1--
%chk=mol_023_Z_scan_pt6.chk
%nprocshared=8
%mem=16GB
#p wB97XD/6-311+G(d,p) Geom=Check Guess=Read Stable=Opt Pop=NBO7Read Density=Current scrf=(smd,solvent=water)

mol_023_Z SP+NBO7/CMO after constrained opt at R0+0.30A  [oxime: C13=N14-O15]

1 1

$NBO CMO PRINT=2 E2PERT=0.05 BNDIDX $END


