%chk=mol_023_Z_opt.chk
%nprocshared=8
%mem=16GB
#p wB97XD/6-311+G(d,p) opt scrf=(smd,solvent=water)

mol_023_Z opt  [oxime: C13=N14-O15]

1 1
O        4.17530000     -1.85360000     -0.42520000
N        3.95490000     -0.67400000     -0.19470000
O        4.79720000      0.20630000     -0.08890000
C        2.53440000     -0.27110000     -0.02810000
C        2.25330000      1.05530000      0.25470000
C        0.93480000      1.42960000      0.38160000
C       -0.08930000      0.48460000      0.22400000
C        0.21510000     -0.87600000      0.01510000
C        1.55040000     -1.23000000     -0.14620000
C       -0.83040000     -1.95320000      0.03080000
C       -2.25890000     -1.45930000     -0.13110000
C       -2.49230000     -0.22390000      0.72750000
C       -1.50990000      0.83820000      0.27250000
N       -2.18710000      1.85460000     -0.07080000
O       -1.18290000      3.02160000     -0.78060000
H        3.05440000      1.76620000      0.37060000
H        0.71160000      2.45480000      0.63560000
H        1.82890000     -2.25360000     -0.34720000
H       -0.59430000     -2.70040000     -0.72630000
H       -0.73500000     -2.47120000      0.98910000
H       -2.47350000     -1.22460000     -1.17400000
H       -2.95440000     -2.24310000      0.16010000
H       -3.51350000      0.14260000      0.67180000
H       -2.27690000     -0.43460000      1.77580000
H       -1.17820000      2.79520000     -1.73210000
H       -1.73320000      3.81940000     -0.66400000


