24
mol_019_E_opt
O       -3.003600     -1.953100     -0.541500
N       -1.314400     -1.882100     -0.448500
C       -0.997600     -0.686900     -0.130700
C       -1.928600      0.453600      0.164000
C       -1.228100      1.623900      0.829500
C        0.033100      1.988200      0.073100
C        0.967100      0.822400     -0.010400
C        2.344900      1.009400      0.001400
C        3.213000     -0.067400     -0.072200
C        2.716100     -1.365000     -0.161200
C        1.355200     -1.578600     -0.180100
C        0.468300     -0.491500     -0.102100
H       -3.109200     -2.393800     -1.406500
H       -3.198400     -2.620400      0.144600
H       -2.347100      0.746300     -0.800500
H       -2.760800      0.090900      0.762700
H       -0.978500      1.366900      1.859100
H       -1.912400      2.466600      0.863100
H       -0.229200      2.314300     -0.938200
H        0.519500      2.837100      0.547000
H        2.740000      2.013900      0.074100
H        4.281000      0.098800     -0.060100
H        3.395600     -2.203500     -0.217100
H        0.974100     -2.590000     -0.249600
