24
mol_019_Z_opt
O        0.675000      3.049300      0.509000
N       -0.816900      2.415400      0.097100
C       -0.707800      1.179300     -0.194300
C       -2.108100      0.641900     -0.400500
C       -2.296200     -0.535200      0.545400
C       -1.269800     -1.617700      0.255000
C        0.129200     -1.113800      0.031400
C        1.191800     -2.011300      0.056200
C        2.476400     -1.612500     -0.269400
C        2.735000     -0.295900     -0.631700
C        1.709600      0.623700     -0.631700
C        0.406900      0.238500     -0.269300
H        0.880800      2.683500      1.393000
H        0.450600      3.993700      0.603400
H       -2.183500      0.318900     -1.439100
H       -2.845200      1.424000     -0.247600
H       -3.300100     -0.937400      0.429100
H       -2.214700     -0.188700      1.576200
H       -1.271400     -2.361100      1.051700
H       -1.570100     -2.157000     -0.647800
H        0.998300     -3.043700      0.319200
H        3.283300     -2.331800     -0.256400
H        3.731500      0.005400     -0.920200
H        1.915700      1.632800     -0.958500
