%chk=mol_006_Z_scan_pt1.chk
%nprocshared=8
%mem=16GB
#p wB97XD/6-311+G(d,p) opt=(ModRedundant) SCF=(Tight,XQC) NoSymm scrf=(smd,solvent=water)

mol_006_Z scan pt1 (R0+0.05A) rigid O-N displacement then constrained opt  [oxime: C10=N11-O12]

1 1
C        3.91277700     -0.35264100     -0.02202700
C        2.41473900     -0.25373100     -0.00678100
C        1.64082000     -1.42478500      0.07141200
C        0.26078100     -1.38239600      0.09291800
C       -0.37223900     -0.13212400      0.03784900
C        0.38719100      1.04146900     -0.03860300
C        1.77412300      0.98118900     -0.06275300
C       -0.47571700      2.26721200     -0.11337300
C       -1.89067100      1.74442500      0.18119900
C       -1.78054300      0.24357500      0.04762500
N       -2.88825300     -0.39520100     -0.03823000
O       -2.58180290     -1.92179332     -0.15518822
H        4.24741100     -0.97842600     -0.85402200
H        4.27426500     -0.81839600      0.89927700
H        4.37674100      0.63013400     -0.11785900
H        2.14400400     -2.38466100      0.11988400
H       -0.29964100     -2.30325400      0.16002600
H        2.35787500      1.89388200     -0.12275500
H       -0.41894100      2.70145800     -1.11497600
H       -0.16102900      3.03343800      0.59632600
H       -2.65991800      2.15145100     -0.47377600
H       -2.17681400      1.96051900      1.21389400
H       -2.63830290     -2.32791732      0.73077678
H       -3.30288790     -2.29947532     -0.68993122

B 11 12 F

--Link1--
%chk=mol_006_Z_scan_pt1.chk
%nprocshared=8
%mem=16GB
#p wB97XD/6-311+G(d,p) Geom=Check Guess=Read Stable=Opt Pop=NBO7Read Density=Current scrf=(smd,solvent=water)

mol_006_Z SP+NBO7/CMO after constrained opt at R0+0.05A  [oxime: C10=N11-O12]

1 1

$NBO CMO PRINT=2 E2PERT=0.05 BNDIDX $END

--Link1--
%chk=mol_006_Z_scan_pt2.chk
%nprocshared=8
%mem=16GB
#p wB97XD/6-311+G(d,p) opt=(ModRedundant) SCF=(Tight,XQC) NoSymm scrf=(smd,solvent=water)

mol_006_Z scan pt2 (R0+0.10A) rigid O-N displacement then constrained opt  [oxime: C10=N11-O12]

1 1
C        3.91277700     -0.35264100     -0.02202700
C        2.41473900     -0.25373100     -0.00678100
C        1.64082000     -1.42478500      0.07141200
C        0.26078100     -1.38239600      0.09291800
C       -0.37223900     -0.13212400      0.03784900
C        0.38719100      1.04146900     -0.03860300
C        1.77412300      0.98118900     -0.06275300
C       -0.47571700      2.26721200     -0.11337300
C       -1.89067100      1.74442500      0.18119900
C       -1.78054300      0.24357500      0.04762500
N       -2.88825300     -0.39520100     -0.03823000
O       -2.57198980     -1.97067763     -0.15893344
H        4.24741100     -0.97842600     -0.85402200
H        4.27426500     -0.81839600      0.89927700
H        4.37674100      0.63013400     -0.11785900
H        2.14400400     -2.38466100      0.11988400
H       -0.29964100     -2.30325400      0.16002600
H        2.35787500      1.89388200     -0.12275500
H       -0.41894100      2.70145800     -1.11497600
H       -0.16102900      3.03343800      0.59632600
H       -2.65991800      2.15145100     -0.47377600
H       -2.17681400      1.96051900      1.21389400
H       -2.62848980     -2.37680163      0.72703156
H       -3.29307480     -2.34835963     -0.69367644

B 11 12 F

--Link1--
%chk=mol_006_Z_scan_pt2.chk
%nprocshared=8
%mem=16GB
#p wB97XD/6-311+G(d,p) Geom=Check Guess=Read Stable=Opt Pop=NBO7Read Density=Current scrf=(smd,solvent=water)

mol_006_Z SP+NBO7/CMO after constrained opt at R0+0.10A  [oxime: C10=N11-O12]

1 1

$NBO CMO PRINT=2 E2PERT=0.05 BNDIDX $END

--Link1--
%chk=mol_006_Z_scan_pt3.chk
%nprocshared=8
%mem=16GB
#p wB97XD/6-311+G(d,p) opt=(ModRedundant) SCF=(Tight,XQC) NoSymm scrf=(smd,solvent=water)

mol_006_Z scan pt3 (R0+0.15A) rigid O-N displacement then constrained opt  [oxime: C10=N11-O12]

1 1
C        3.91277700     -0.35264100     -0.02202700
C        2.41473900     -0.25373100     -0.00678100
C        1.64082000     -1.42478500      0.07141200
C        0.26078100     -1.38239600      0.09291800
C       -0.37223900     -0.13212400      0.03784900
C        0.38719100      1.04146900     -0.03860300
C        1.77412300      0.98118900     -0.06275300
C       -0.47571700      2.26721200     -0.11337300
C       -1.89067100      1.74442500      0.18119900
C       -1.78054300      0.24357500      0.04762500
N       -2.88825300     -0.39520100     -0.03823000
O       -2.56217670     -2.01956195     -0.16267866
H        4.24741100     -0.97842600     -0.85402200
H        4.27426500     -0.81839600      0.89927700
H        4.37674100      0.63013400     -0.11785900
H        2.14400400     -2.38466100      0.11988400
H       -0.29964100     -2.30325400      0.16002600
H        2.35787500      1.89388200     -0.12275500
H       -0.41894100      2.70145800     -1.11497600
H       -0.16102900      3.03343800      0.59632600
H       -2.65991800      2.15145100     -0.47377600
H       -2.17681400      1.96051900      1.21389400
H       -2.61867670     -2.42568595      0.72328634
H       -3.28326170     -2.39724395     -0.69742166

B 11 12 F

--Link1--
%chk=mol_006_Z_scan_pt3.chk
%nprocshared=8
%mem=16GB
#p wB97XD/6-311+G(d,p) Geom=Check Guess=Read Stable=Opt Pop=NBO7Read Density=Current scrf=(smd,solvent=water)

mol_006_Z SP+NBO7/CMO after constrained opt at R0+0.15A  [oxime: C10=N11-O12]

1 1

$NBO CMO PRINT=2 E2PERT=0.05 BNDIDX $END

--Link1--
%chk=mol_006_Z_scan_pt4.chk
%nprocshared=8
%mem=16GB
#p wB97XD/6-311+G(d,p) opt=(ModRedundant) SCF=(Tight,XQC) NoSymm scrf=(smd,solvent=water)

mol_006_Z scan pt4 (R0+0.20A) rigid O-N displacement then constrained opt  [oxime: C10=N11-O12]

1 1
C        3.91277700     -0.35264100     -0.02202700
C        2.41473900     -0.25373100     -0.00678100
C        1.64082000     -1.42478500      0.07141200
C        0.26078100     -1.38239600      0.09291800
C       -0.37223900     -0.13212400      0.03784900
C        0.38719100      1.04146900     -0.03860300
C        1.77412300      0.98118900     -0.06275300
C       -0.47571700      2.26721200     -0.11337300
C       -1.89067100      1.74442500      0.18119900
C       -1.78054300      0.24357500      0.04762500
N       -2.88825300     -0.39520100     -0.03823000
O       -2.55236360     -2.06844627     -0.16642388
H        4.24741100     -0.97842600     -0.85402200
H        4.27426500     -0.81839600      0.89927700
H        4.37674100      0.63013400     -0.11785900
H        2.14400400     -2.38466100      0.11988400
H       -0.29964100     -2.30325400      0.16002600
H        2.35787500      1.89388200     -0.12275500
H       -0.41894100      2.70145800     -1.11497600
H       -0.16102900      3.03343800      0.59632600
H       -2.65991800      2.15145100     -0.47377600
H       -2.17681400      1.96051900      1.21389400
H       -2.60886360     -2.47457027      0.71954112
H       -3.27344860     -2.44612827     -0.70116688

B 11 12 F

--Link1--
%chk=mol_006_Z_scan_pt4.chk
%nprocshared=8
%mem=16GB
#p wB97XD/6-311+G(d,p) Geom=Check Guess=Read Stable=Opt Pop=NBO7Read Density=Current scrf=(smd,solvent=water)

mol_006_Z SP+NBO7/CMO after constrained opt at R0+0.20A  [oxime: C10=N11-O12]

1 1

$NBO CMO PRINT=2 E2PERT=0.05 BNDIDX $END

--Link1--
%chk=mol_006_Z_scan_pt5.chk
%nprocshared=8
%mem=16GB
#p wB97XD/6-311+G(d,p) opt=(ModRedundant) SCF=(Tight,XQC) NoSymm scrf=(smd,solvent=water)

mol_006_Z scan pt5 (R0+0.25A) rigid O-N displacement then constrained opt  [oxime: C10=N11-O12]

1 1
C        3.91277700     -0.35264100     -0.02202700
C        2.41473900     -0.25373100     -0.00678100
C        1.64082000     -1.42478500      0.07141200
C        0.26078100     -1.38239600      0.09291800
C       -0.37223900     -0.13212400      0.03784900
C        0.38719100      1.04146900     -0.03860300
C        1.77412300      0.98118900     -0.06275300
C       -0.47571700      2.26721200     -0.11337300
C       -1.89067100      1.74442500      0.18119900
C       -1.78054300      0.24357500      0.04762500
N       -2.88825300     -0.39520100     -0.03823000
O       -2.54255050     -2.11733058     -0.17016910
H        4.24741100     -0.97842600     -0.85402200
H        4.27426500     -0.81839600      0.89927700
H        4.37674100      0.63013400     -0.11785900
H        2.14400400     -2.38466100      0.11988400
H       -0.29964100     -2.30325400      0.16002600
H        2.35787500      1.89388200     -0.12275500
H       -0.41894100      2.70145800     -1.11497600
H       -0.16102900      3.03343800      0.59632600
H       -2.65991800      2.15145100     -0.47377600
H       -2.17681400      1.96051900      1.21389400
H       -2.59905050     -2.52345458      0.71579590
H       -3.26363550     -2.49501258     -0.70491210

B 11 12 F

--Link1--
%chk=mol_006_Z_scan_pt5.chk
%nprocshared=8
%mem=16GB
#p wB97XD/6-311+G(d,p) Geom=Check Guess=Read Stable=Opt Pop=NBO7Read Density=Current scrf=(smd,solvent=water)

mol_006_Z SP+NBO7/CMO after constrained opt at R0+0.25A  [oxime: C10=N11-O12]

1 1

$NBO CMO PRINT=2 E2PERT=0.05 BNDIDX $END

--Link1--
%chk=mol_006_Z_scan_pt6.chk
%nprocshared=8
%mem=16GB
#p wB97XD/6-311+G(d,p) opt=(ModRedundant) SCF=(Tight,XQC) NoSymm scrf=(smd,solvent=water)

mol_006_Z scan pt6 (R0+0.30A) rigid O-N displacement then constrained opt  [oxime: C10=N11-O12]

1 1
C        3.91277700     -0.35264100     -0.02202700
C        2.41473900     -0.25373100     -0.00678100
C        1.64082000     -1.42478500      0.07141200
C        0.26078100     -1.38239600      0.09291800
C       -0.37223900     -0.13212400      0.03784900
C        0.38719100      1.04146900     -0.03860300
C        1.77412300      0.98118900     -0.06275300
C       -0.47571700      2.26721200     -0.11337300
C       -1.89067100      1.74442500      0.18119900
C       -1.78054300      0.24357500      0.04762500
N       -2.88825300     -0.39520100     -0.03823000
O       -2.53273740     -2.16621490     -0.17391431
H        4.24741100     -0.97842600     -0.85402200
H        4.27426500     -0.81839600      0.89927700
H        4.37674100      0.63013400     -0.11785900
H        2.14400400     -2.38466100      0.11988400
H       -0.29964100     -2.30325400      0.16002600
H        2.35787500      1.89388200     -0.12275500
H       -0.41894100      2.70145800     -1.11497600
H       -0.16102900      3.03343800      0.59632600
H       -2.65991800      2.15145100     -0.47377600
H       -2.17681400      1.96051900      1.21389400
H       -2.58923740     -2.57233890      0.71205069
H       -3.25382240     -2.54389690     -0.70865731

B 11 12 F

--Link1--
%chk=mol_006_Z_scan_pt6.chk
%nprocshared=8
%mem=16GB
#p wB97XD/6-311+G(d,p) Geom=Check Guess=Read Stable=Opt Pop=NBO7Read Density=Current scrf=(smd,solvent=water)

mol_006_Z SP+NBO7/CMO after constrained opt at R0+0.30A  [oxime: C10=N11-O12]

1 1

$NBO CMO PRINT=2 E2PERT=0.05 BNDIDX $END


