%chk=mol_006_Z_opt.chk
%nprocshared=8
%mem=16GB
#p wB97XD/6-311+G(d,p) opt scrf=(smd,solvent=water)

mol_006_Z opt  [oxime: C10=N11-O12]

1 1
C        3.67080000     -0.34030000     -0.03100000
C        2.19770000     -0.12290000      0.01260000
C        1.68410000      1.16790000      0.21720000
C        0.33030000      1.40360000      0.25360000
C       -0.54240000      0.32250000      0.07920000
C       -0.04240000     -0.97700000     -0.11940000
C        1.32040000     -1.18980000     -0.15300000
C       -1.12950000     -1.98480000     -0.28580000
C       -2.43040000     -1.20710000     -0.00260000
C       -1.98500000      0.25690000      0.07380000
N       -2.99210000      1.03070000      0.09320000
O       -2.42660000      2.64520000      0.18650000
H        4.15960000      0.09260000      0.84080000
H        4.10690000      0.14540000     -0.90510000
H        3.92480000     -1.39430000     -0.07540000
H        2.37240000      1.98990000      0.35340000
H       -0.01520000      2.40970000      0.43060000
H        1.71300000     -2.18470000     -0.30560000
H       -1.00500000     -2.83540000      0.38060000
H       -1.13170000     -2.38470000     -1.29930000
H       -2.86670000     -1.48210000      0.95440000
H       -3.19620000     -1.35240000     -0.75790000
H       -2.60880000      2.97020000     -0.71590000
H       -3.10820000      3.02060000      0.77510000


