%chk=mol_010_E.chk
%nprocshared=8
%mem=16GB
#p wB97XD/6-311+G(d,p) sp pop=nbo7read

mol_010_E  [oxime: C9=N10-O11]

1 1
C        3.86320000      0.92520000     -0.02350000
O        3.37160000     -0.35430000     -0.42530000
C        2.04950000     -0.57840000     -0.38950000
C        1.63930000     -1.86130000     -0.82480000
C        0.30930000     -2.22390000     -0.84040000
C       -0.65440000     -1.31400000     -0.41930000
C       -0.23630000     -0.05080000      0.00920000
C        1.09770000      0.34670000      0.03680000
C       -1.41690000      0.71990000      0.39620000
N       -1.23990000      1.90410000      0.81740000
O       -2.83350000      2.49600000      1.17090000
C       -2.65160000     -0.11820000      0.19340000
C       -2.14080000     -1.46830000     -0.34330000
H        4.93860000      0.87750000     -0.14080000
H        3.61790000      1.12600000      1.01920000
H        3.46020000      1.71260000     -0.66020000
H        2.40710000     -2.54990000     -1.14700000
H        0.03050000     -3.21130000     -1.18030000
H        1.37250000      1.33360000      0.37700000
H       -2.69100000      2.76770000      2.09790000
H       -2.81070000      3.31410000      0.63840000
H       -3.31870000      0.39290000     -0.49570000
H       -3.18400000     -0.20470000      1.13670000
H       -2.41660000     -2.28780000      0.31680000
H       -2.56320000     -1.69340000     -1.32000000
$NBO E2PERT BNDIDX NBOSUM CMO $END


