%chk=mol_002_E_ts1_a1.chk
%nprocshared=8
%mem=16GB
#p wB97XD/6-311+G(d,p) opt=(qst2,calcfc) freq pop=nbo7read scrf=(smd,solvent=water) scf=(tight,xqc)

mol_002_E ts1_a1 -- reactant (R_A1)

1 1
C       -4.23900000      0.54490000     -0.00840000
O       -3.46590000     -0.64350000      0.18480000
C       -2.13610000     -0.56600000      0.09590000
C       -1.44730000     -1.78310000      0.30210000
C       -0.07850000     -1.83170000      0.23560000
C        0.61710000     -0.64390000     -0.04230000
C       -0.06450000      0.56640000     -0.24770000
C       -1.43920000      0.61680000     -0.18020000
C        0.88110000      1.69460000     -0.52950000
C        2.27770000      1.05890000     -0.47930000
C        2.03480000     -0.40030000     -0.17170000
N        2.84920000     -1.37660000     -0.02130000
O        4.39370000     -0.73310000     -0.24080000
H       -5.27140000      0.24000000      0.10670000
H       -4.08220000      0.94630000     -1.00850000
H       -3.98850000      1.29180000      0.74360000
H       -2.03990000     -2.66180000      0.51160000
H        0.42570000     -2.77450000      0.39720000
H       -1.96120000      1.54690000     -0.33730000
H        0.67950000      2.13860000     -1.50050000
H        0.77560000      2.48550000      0.20790000
H        2.91530000      1.48440000      0.29250000
H        2.82000000      1.14010000     -1.41860000
H        4.81650000     -1.01490000      0.59280000
H        4.72750000     -1.32560000     -0.94130000

mol_002_E ts1_a1 -- rearrangement product (P_A1, AIMNet2 guess)

1 1
C       -3.99670000      0.54040000     -0.02080000
O       -3.29740000     -0.68790000      0.18710000
C       -1.95880000     -0.69190000      0.11220000
C       -1.34490000     -1.93550000      0.32730000
C        0.02130000     -2.04420000      0.27130000
C        0.79390000     -0.91650000     -0.00010000
C        0.19820000      0.33320000     -0.21700000
C       -1.17710000      0.43820000     -0.15940000
C        1.03130000      1.56540000     -0.51350000
C        2.57350000      1.37660000     -0.55770000
C        2.85450000     -0.03140000     -0.29430000
N        2.19960000     -1.03470000     -0.05700000
O        4.54550000     -0.29790000     -0.33820000
H       -5.04820000      0.30160000      0.08610000
H       -3.80920000      0.92760000     -1.02170000
H       -3.71140000      1.27920000      0.72720000
H       -1.97410000     -2.78790000      0.53490000
H        0.50990000     -2.99440000      0.43500000
H       -1.64290000      1.39880000     -0.32530000
H        0.71000000      1.97740000     -1.46790000
H        0.80140000      2.32460000      0.23100000
H        3.06840000      1.99940000      0.18800000
H        2.97750000      1.66060000     -1.52980000
H        4.78960000     -0.68340000      0.52710000
H        4.70030000     -0.99370000     -1.00820000

$NBO E2PERT BNDIDX NBOSUM CMO $END


