%chk=mol_002_E_sp2.chk
%nprocshared=8
%mem=16GB
#p wB97XD/6-311+G(d,p) sp pop=nbo7read

mol_002_E_sp2  R(N-O)=1.7119A  [oxime: C11=N12-O13]

1 1
C       -4.34459100      0.59340600      0.00008600
O       -3.51287200     -0.56244800      0.00004500
C       -2.19258900     -0.42396300      0.00000200
C       -1.46760800     -1.64068100     -0.00002800
C       -0.09968600     -1.63830600     -0.00006200
C        0.56645900     -0.39929100     -0.00006800
C       -0.14331400      0.80612300     -0.00005400
C       -1.52779800      0.80714700     -0.00001100
C        0.77301400      1.99630200     -0.00016500
C        2.19169800      1.39453800      0.00019800
C        1.98132400     -0.10162500     -0.00004600
N        2.82035700     -1.06608000     -0.00017400
O        4.37116900     -0.34099400      0.00025400
H       -5.36475800      0.21899400      0.00012200
H       -4.17455400      1.19377100     -0.89789100
H       -4.17448500      1.19375700      0.89806000
H       -2.03141400     -2.56474200     -0.00001400
H        0.44996100     -2.57155000     -0.00007600
H       -2.07172400      1.74221000      0.00000600
H        0.60594600      2.62156400     -0.87964500
H        0.60565700      2.62206900      0.87889500
H        2.77441400      1.67715600      0.87919400
H        2.77508400      1.67750600     -0.87823200
H        4.78772500     -0.74249300      0.77830300
H        4.78781800     -0.74004300     -0.77900900

$NBO E2PERT BNDIDX NBOSUM CMO $END


