%chk=mol_002_E_sp4.chk
%nprocshared=8
%mem=16GB
#p wB97XD/6-311+G(d,p) sp pop=nboread

mol_002_E_sp4  R(N-O)=1.9119A  [oxime: C11=N12-O13]

1 1
C       -4.35528800      0.62160000     -0.00015600
O       -3.53510000     -0.54286300     -0.00009200
C       -2.21390200     -0.41831200     -0.00001100
C       -1.50114400     -1.64141700      0.00001600
C       -0.13273500     -1.65351800      0.00006400
C        0.54174700     -0.42079300      0.00015100
C       -0.15136200      0.79443100      0.00007300
C       -1.53601100      0.80570500      0.00001000
C        0.77258800      1.97692100      0.00008400
C        2.18774100      1.37045000      0.00006100
C        1.97151200     -0.13140000      0.00032600
N        2.78811300     -1.08977700      0.00019400
O        4.51828300     -0.27610500     -0.00036100
H       -5.37908000      0.25734000     -0.00021200
H       -4.17913000      1.21991800     -0.89829900
H       -4.17923300      1.21993800      0.89799400
H       -2.07280500     -2.56061200      0.00000900
H        0.40596000     -2.59284700      0.00011800
H       -2.06993900      1.74653300     -0.00002900
H        0.61069200      2.60293600     -0.87979700
H        0.61070100      2.60289700      0.87999500
H        2.77603400      1.63617900      0.87966800
H        2.77587700      1.63591200     -0.87974300
H        4.91013800     -0.70515500      0.77290500
H        4.90964600     -0.70486200     -0.77404000

$NBO E2PERT BNDIDX NBOSUM $END


