%chk=mol_002_E_sp3.chk
%nprocshared=8
%mem=16GB
#p wB97XD/6-311+G(d,p) sp pop=nbo7read scrf=(smd,solvent=water)

mol_002_E_sp3  R(N-O)=1.7092A  [oxime: C11=N12-O13]

1 1
C       -4.33159700      0.62253500     -0.03736700
O       -3.53427800     -0.56021400     -0.00798700
C       -2.19137300     -0.43077300      0.00662300
C       -1.47463000     -1.64502500      0.01722900
C       -0.10050800     -1.64239600      0.02483800
C        0.56438200     -0.40887000      0.02323900
C       -0.14139400      0.79391900      0.01798300
C       -1.53057600      0.79641300      0.00987200
C        0.77541900      1.98200300      0.01751500
C        2.19200000      1.38100100     -0.00315100
C        1.99050900     -0.10837100      0.00588900
N        2.82980700     -1.06948300     -0.00271300
O        4.36348400     -0.31763800     -0.06426300
H       -5.36425300      0.28047200     -0.05475500
H       -4.12311500      1.20844400     -0.93626000
H       -4.16011100      1.22908900      0.85552600
H       -2.03119900     -2.57435300      0.01553600
H        0.44703600     -2.57694700      0.02915900
H       -2.07138500      1.73344900      0.00323000
H        0.59452600      2.61354000     -0.85427900
H        0.61416300      2.59560100      0.90607900
H        2.78947200      1.66272900      0.86550700
H        2.75791800      1.65450900     -0.89505000
H        4.73483800     -0.45183400      0.82483400
H        4.85641400     -0.90811800     -0.65855400

$NBO E2PERT BNDIDX NBOSUM CMO $END


