%chk=mol_002_E_opt.chk
%nprocshared=8
%mem=16GB
#p wB97XD/6-311+G(d,p) opt scrf=(smd,solvent=water)

mol_002_E opt  [oxime: C11=N12-O13]

1 1
C       -4.23900000      0.54490000     -0.00840000
O       -3.46590000     -0.64350000      0.18480000
C       -2.13610000     -0.56600000      0.09590000
C       -1.44730000     -1.78310000      0.30210000
C       -0.07850000     -1.83170000      0.23560000
C        0.61710000     -0.64390000     -0.04230000
C       -0.06450000      0.56640000     -0.24770000
C       -1.43920000      0.61680000     -0.18020000
C        0.88110000      1.69460000     -0.52950000
C        2.27770000      1.05890000     -0.47930000
C        2.03480000     -0.40030000     -0.17170000
N        2.84920000     -1.37660000     -0.02130000
O        4.39370000     -0.73310000     -0.24080000
H       -5.27140000      0.24000000      0.10670000
H       -4.08220000      0.94630000     -1.00850000
H       -3.98850000      1.29180000      0.74360000
H       -2.03990000     -2.66180000      0.51160000
H        0.42570000     -2.77450000      0.39720000
H       -1.96120000      1.54690000     -0.33730000
H        0.67950000      2.13860000     -1.50050000
H        0.77560000      2.48550000      0.20790000
H        2.91530000      1.48440000      0.29250000
H        2.82000000      1.14010000     -1.41860000
H        4.81650000     -1.01490000      0.59280000
H        4.72750000     -1.32560000     -0.94130000


