%chk=mol_020_E_step07_scan_pt1.chk
%nprocshared=8
%mem=16GB
#p wB97XD/6-311+G(d,p) opt=(ModRedundant) SCF=(Tight,XQC) NoSymm scrf=(smd,solvent=water)

mol_020_E_step07 scan pt1 (R0+0.07A) rigid O-N displacement then constrained opt  [oxime: C11=N12-O13]

1 1
C       -4.23499800     -0.29174700     -0.06150900
C       -2.73411900     -0.30111500     -0.00971700
C       -2.04188300     -1.49451500      0.23487500
C       -0.66221500     -1.51444700      0.26550400
C        0.06897500     -0.33626000      0.05382000
C       -0.60647800      0.87297100     -0.16721200
C       -2.00007300      0.86524600     -0.19857500
C        0.16636600      2.15085100     -0.35127700
C        1.41636000      2.13183100      0.51911700
C        2.30370400      0.94957200      0.15232500
C        1.54158400     -0.33682200      0.01289900
N        2.07046000     -1.48770800     -0.20277700
O        3.63392327     -1.32179743     -0.24887344
H       -4.62551100      0.72654600     -0.09837600
H       -4.58725900     -0.82456100     -0.95014300
H       -4.65849800     -0.79803900      0.80966500
H       -2.59717700     -2.41018000      0.40868500
H       -0.14347900     -2.44360400      0.46796100
H       -2.52237400      1.80229400     -0.36690300
H        0.45437600      2.25563400     -1.40459800
H       -0.47104000      3.00226600     -0.10615200
H        1.98818300      3.05285400      0.39393200
H        1.12577500      2.06520700      1.57208500
H        3.09801900      0.81460100      0.88909600
H        2.79492800      1.12535900     -0.81182300
H        4.00933627     -1.39944643      0.64928856
H        3.96256327     -2.08015743     -0.76429644

B 12 13 F

--Link1--
%chk=mol_020_E_step07_scan_pt1.chk
%nprocshared=8
%mem=16GB
#p wB97XD/6-311+G(d,p) Geom=Check Guess=Read Stable=Opt Pop=NBO7Read Density=Current scrf=(smd,solvent=water)

mol_020_E_step07 SP+NBO7/CMO after constrained opt at R0+0.07A  [oxime: C11=N12-O13]

1 1

$NBO CMO PRINT=2 E2PERT=0.05 BNDIDX $END

--Link1--
%chk=mol_020_E_step07_scan_pt2.chk
%nprocshared=8
%mem=16GB
#p wB97XD/6-311+G(d,p) opt=(ModRedundant) SCF=(Tight,XQC) NoSymm scrf=(smd,solvent=water)

mol_020_E_step07 scan pt2 (R0+0.14A) rigid O-N displacement then constrained opt  [oxime: C11=N12-O13]

1 1
C       -4.23499800     -0.29174700     -0.06150900
C       -2.73411900     -0.30111500     -0.00971700
C       -2.04188300     -1.49451500      0.23487500
C       -0.66221500     -1.51444700      0.26550400
C        0.06897500     -0.33626000      0.05382000
C       -0.60647800      0.87297100     -0.16721200
C       -2.00007300      0.86524600     -0.19857500
C        0.16636600      2.15085100     -0.35127700
C        1.41636000      2.13183100      0.51911700
C        2.30370400      0.94957200      0.15232500
C        1.54158400     -0.33682200      0.01289900
N        2.07046000     -1.48770800     -0.20277700
O        3.70350254     -1.31441387     -0.25092489
H       -4.62551100      0.72654600     -0.09837600
H       -4.58725900     -0.82456100     -0.95014300
H       -4.65849800     -0.79803900      0.80966500
H       -2.59717700     -2.41018000      0.40868500
H       -0.14347900     -2.44360400      0.46796100
H       -2.52237400      1.80229400     -0.36690300
H        0.45437600      2.25563400     -1.40459800
H       -0.47104000      3.00226600     -0.10615200
H        1.98818300      3.05285400      0.39393200
H        1.12577500      2.06520700      1.57208500
H        3.09801900      0.81460100      0.88909600
H        2.79492800      1.12535900     -0.81182300
H        4.07891554     -1.39206287      0.64723711
H        4.03214254     -2.07277387     -0.76634789

B 12 13 F

--Link1--
%chk=mol_020_E_step07_scan_pt2.chk
%nprocshared=8
%mem=16GB
#p wB97XD/6-311+G(d,p) Geom=Check Guess=Read Stable=Opt Pop=NBO7Read Density=Current scrf=(smd,solvent=water)

mol_020_E_step07 SP+NBO7/CMO after constrained opt at R0+0.14A  [oxime: C11=N12-O13]

1 1

$NBO CMO PRINT=2 E2PERT=0.05 BNDIDX $END

--Link1--
%chk=mol_020_E_step07_scan_pt3.chk
%nprocshared=8
%mem=16GB
#p wB97XD/6-311+G(d,p) opt=(ModRedundant) SCF=(Tight,XQC) NoSymm scrf=(smd,solvent=water)

mol_020_E_step07 scan pt3 (R0+0.21A) rigid O-N displacement then constrained opt  [oxime: C11=N12-O13]

1 1
C       -4.23499800     -0.29174700     -0.06150900
C       -2.73411900     -0.30111500     -0.00971700
C       -2.04188300     -1.49451500      0.23487500
C       -0.66221500     -1.51444700      0.26550400
C        0.06897500     -0.33626000      0.05382000
C       -0.60647800      0.87297100     -0.16721200
C       -2.00007300      0.86524600     -0.19857500
C        0.16636600      2.15085100     -0.35127700
C        1.41636000      2.13183100      0.51911700
C        2.30370400      0.94957200      0.15232500
C        1.54158400     -0.33682200      0.01289900
N        2.07046000     -1.48770800     -0.20277700
O        3.77308180     -1.30703030     -0.25297633
H       -4.62551100      0.72654600     -0.09837600
H       -4.58725900     -0.82456100     -0.95014300
H       -4.65849800     -0.79803900      0.80966500
H       -2.59717700     -2.41018000      0.40868500
H       -0.14347900     -2.44360400      0.46796100
H       -2.52237400      1.80229400     -0.36690300
H        0.45437600      2.25563400     -1.40459800
H       -0.47104000      3.00226600     -0.10615200
H        1.98818300      3.05285400      0.39393200
H        1.12577500      2.06520700      1.57208500
H        3.09801900      0.81460100      0.88909600
H        2.79492800      1.12535900     -0.81182300
H        4.14849480     -1.38467930      0.64518567
H        4.10172180     -2.06539030     -0.76839933

B 12 13 F

--Link1--
%chk=mol_020_E_step07_scan_pt3.chk
%nprocshared=8
%mem=16GB
#p wB97XD/6-311+G(d,p) Geom=Check Guess=Read Stable=Opt Pop=NBO7Read Density=Current scrf=(smd,solvent=water)

mol_020_E_step07 SP+NBO7/CMO after constrained opt at R0+0.21A  [oxime: C11=N12-O13]

1 1

$NBO CMO PRINT=2 E2PERT=0.05 BNDIDX $END

--Link1--
%chk=mol_020_E_step07_scan_pt4.chk
%nprocshared=8
%mem=16GB
#p wB97XD/6-311+G(d,p) opt=(ModRedundant) SCF=(Tight,XQC) NoSymm scrf=(smd,solvent=water)

mol_020_E_step07 scan pt4 (R0+0.28A) rigid O-N displacement then constrained opt  [oxime: C11=N12-O13]

1 1
C       -4.23499800     -0.29174700     -0.06150900
C       -2.73411900     -0.30111500     -0.00971700
C       -2.04188300     -1.49451500      0.23487500
C       -0.66221500     -1.51444700      0.26550400
C        0.06897500     -0.33626000      0.05382000
C       -0.60647800      0.87297100     -0.16721200
C       -2.00007300      0.86524600     -0.19857500
C        0.16636600      2.15085100     -0.35127700
C        1.41636000      2.13183100      0.51911700
C        2.30370400      0.94957200      0.15232500
C        1.54158400     -0.33682200      0.01289900
N        2.07046000     -1.48770800     -0.20277700
O        3.84266107     -1.29964673     -0.25502777
H       -4.62551100      0.72654600     -0.09837600
H       -4.58725900     -0.82456100     -0.95014300
H       -4.65849800     -0.79803900      0.80966500
H       -2.59717700     -2.41018000      0.40868500
H       -0.14347900     -2.44360400      0.46796100
H       -2.52237400      1.80229400     -0.36690300
H        0.45437600      2.25563400     -1.40459800
H       -0.47104000      3.00226600     -0.10615200
H        1.98818300      3.05285400      0.39393200
H        1.12577500      2.06520700      1.57208500
H        3.09801900      0.81460100      0.88909600
H        2.79492800      1.12535900     -0.81182300
H        4.21807407     -1.37729573      0.64313423
H        4.17130107     -2.05800673     -0.77045077

B 12 13 F

--Link1--
%chk=mol_020_E_step07_scan_pt4.chk
%nprocshared=8
%mem=16GB
#p wB97XD/6-311+G(d,p) Geom=Check Guess=Read Stable=Opt Pop=NBO7Read Density=Current scrf=(smd,solvent=water)

mol_020_E_step07 SP+NBO7/CMO after constrained opt at R0+0.28A  [oxime: C11=N12-O13]

1 1

$NBO CMO PRINT=2 E2PERT=0.05 BNDIDX $END

--Link1--
%chk=mol_020_E_step07_scan_pt5.chk
%nprocshared=8
%mem=16GB
#p wB97XD/6-311+G(d,p) opt=(ModRedundant) SCF=(Tight,XQC) NoSymm scrf=(smd,solvent=water)

mol_020_E_step07 scan pt5 (R0+0.35A) rigid O-N displacement then constrained opt  [oxime: C11=N12-O13]

1 1
C       -4.23499800     -0.29174700     -0.06150900
C       -2.73411900     -0.30111500     -0.00971700
C       -2.04188300     -1.49451500      0.23487500
C       -0.66221500     -1.51444700      0.26550400
C        0.06897500     -0.33626000      0.05382000
C       -0.60647800      0.87297100     -0.16721200
C       -2.00007300      0.86524600     -0.19857500
C        0.16636600      2.15085100     -0.35127700
C        1.41636000      2.13183100      0.51911700
C        2.30370400      0.94957200      0.15232500
C        1.54158400     -0.33682200      0.01289900
N        2.07046000     -1.48770800     -0.20277700
O        3.91224034     -1.29226317     -0.25707922
H       -4.62551100      0.72654600     -0.09837600
H       -4.58725900     -0.82456100     -0.95014300
H       -4.65849800     -0.79803900      0.80966500
H       -2.59717700     -2.41018000      0.40868500
H       -0.14347900     -2.44360400      0.46796100
H       -2.52237400      1.80229400     -0.36690300
H        0.45437600      2.25563400     -1.40459800
H       -0.47104000      3.00226600     -0.10615200
H        1.98818300      3.05285400      0.39393200
H        1.12577500      2.06520700      1.57208500
H        3.09801900      0.81460100      0.88909600
H        2.79492800      1.12535900     -0.81182300
H        4.28765334     -1.36991217      0.64108278
H        4.24088034     -2.05062317     -0.77250222

B 12 13 F

--Link1--
%chk=mol_020_E_step07_scan_pt5.chk
%nprocshared=8
%mem=16GB
#p wB97XD/6-311+G(d,p) Geom=Check Guess=Read Stable=Opt Pop=NBO7Read Density=Current scrf=(smd,solvent=water)

mol_020_E_step07 SP+NBO7/CMO after constrained opt at R0+0.35A  [oxime: C11=N12-O13]

1 1

$NBO CMO PRINT=2 E2PERT=0.05 BNDIDX $END

--Link1--
%chk=mol_020_E_step07_scan_pt6.chk
%nprocshared=8
%mem=16GB
#p wB97XD/6-311+G(d,p) opt=(ModRedundant) SCF=(Tight,XQC) NoSymm scrf=(smd,solvent=water)

mol_020_E_step07 scan pt6 (R0+0.42A) rigid O-N displacement then constrained opt  [oxime: C11=N12-O13]

1 1
C       -4.23499800     -0.29174700     -0.06150900
C       -2.73411900     -0.30111500     -0.00971700
C       -2.04188300     -1.49451500      0.23487500
C       -0.66221500     -1.51444700      0.26550400
C        0.06897500     -0.33626000      0.05382000
C       -0.60647800      0.87297100     -0.16721200
C       -2.00007300      0.86524600     -0.19857500
C        0.16636600      2.15085100     -0.35127700
C        1.41636000      2.13183100      0.51911700
C        2.30370400      0.94957200      0.15232500
C        1.54158400     -0.33682200      0.01289900
N        2.07046000     -1.48770800     -0.20277700
O        3.98181961     -1.28487960     -0.25913066
H       -4.62551100      0.72654600     -0.09837600
H       -4.58725900     -0.82456100     -0.95014300
H       -4.65849800     -0.79803900      0.80966500
H       -2.59717700     -2.41018000      0.40868500
H       -0.14347900     -2.44360400      0.46796100
H       -2.52237400      1.80229400     -0.36690300
H        0.45437600      2.25563400     -1.40459800
H       -0.47104000      3.00226600     -0.10615200
H        1.98818300      3.05285400      0.39393200
H        1.12577500      2.06520700      1.57208500
H        3.09801900      0.81460100      0.88909600
H        2.79492800      1.12535900     -0.81182300
H        4.35723261     -1.36252860      0.63903134
H        4.31045961     -2.04323960     -0.77455366

B 12 13 F

--Link1--
%chk=mol_020_E_step07_scan_pt6.chk
%nprocshared=8
%mem=16GB
#p wB97XD/6-311+G(d,p) Geom=Check Guess=Read Stable=Opt Pop=NBO7Read Density=Current scrf=(smd,solvent=water)

mol_020_E_step07 SP+NBO7/CMO after constrained opt at R0+0.42A  [oxime: C11=N12-O13]

1 1

$NBO CMO PRINT=2 E2PERT=0.05 BNDIDX $END


