%chk=mol_020_E_opt.chk
%nprocshared=8
%mem=16GB
#p wB97XD/6-311+G(d,p) opt scrf=(smd,solvent=water)

mol_020_E opt  [oxime: C11=N12-O13]

1 1
C        4.06210000     -0.71210000     -0.12140000
C        2.63900000     -0.27860000     -0.10400000
C        2.30770000      1.08030000     -0.00920000
C        0.99390000      1.48700000      0.02570000
C       -0.04300000      0.54010000     -0.02630000
C        0.27050000     -0.82890000     -0.12270000
C        1.60510000     -1.20750000     -0.15990000
C       -0.81690000     -1.85430000     -0.18470000
C       -2.01640000     -1.42350000      0.63540000
C       -2.54440000     -0.08670000      0.14640000
C       -1.46120000      0.94420000     -0.00350000
N       -1.60460000      2.20490000     -0.14560000
O       -3.28490000      2.51520000     -0.20320000
H        4.16800000     -1.73500000     -0.46820000
H        4.66710000     -0.06570000     -0.75330000
H        4.48480000     -0.65890000      0.88340000
H        3.09910000      1.81610000      0.03350000
H        0.76360000      2.54340000      0.09860000
H        1.84590000     -2.25970000     -0.23130000
H       -1.12110000     -1.99810000     -1.22640000
H       -0.45300000     -2.81910000      0.15970000
H       -2.81180000     -2.16010000      0.56600000
H       -1.73490000     -1.34720000      1.68600000
H       -3.31990000      0.30090000      0.80270000
H       -2.99740000     -0.18410000     -0.84130000
H       -3.37800000      3.11110000      0.56480000
H       -3.31890000      3.07700000     -1.00120000


