%chk=mol_009_Z_scan_pt1.chk
%nprocshared=8
%mem=16GB
#p wB97XD/6-311+G(d,p) opt=(ModRedundant) SCF=(Tight,XQC) NoSymm scrf=(smd,solvent=water)

mol_009_Z scan pt1 (R0+0.05A) rigid O-N displacement then constrained opt  [oxime: C8=N9-O10]

1 1
C        3.30851000      1.34320800      0.08850300
C        2.13172300      0.40758700      0.03281400
C        2.34091200     -0.97891600     -0.05100300
C        1.28816600     -1.87898500     -0.09478800
C       -0.01429500     -1.39561400     -0.05179700
C       -0.23809000     -0.01762600      0.02887200
C        0.83092000      0.88874100      0.06809800
C       -1.68316700      0.19784200      0.07019200
N       -2.44608400      1.22439700      0.00336100
O       -1.56498355      2.50475489     -0.11915001
C       -2.37758800     -1.13649300      0.21256800
C       -1.29327800     -2.17852300     -0.10530200
H        3.92545600      1.13741500      0.96773200
H        3.94453900      1.22009900     -0.79240200
H        2.98351900      2.38401300      0.13451500
H        3.36036300     -1.35124300     -0.07966800
H        1.47771000     -2.94461100     -0.15825200
H        0.66218100      1.95403000      0.14030100
H       -2.10134055      3.23970289      0.22806899
H       -1.39606355      2.68665689     -1.06388601
H       -2.70538500     -1.22300700      1.25194400
H       -3.25768800     -1.20299700     -0.42537900
H       -1.43446100     -2.59781100     -1.10496800
H       -1.29668400     -3.00777600      0.60342100

B 9 10 F

--Link1--
%chk=mol_009_Z_scan_pt1.chk
%nprocshared=8
%mem=16GB
#p wB97XD/6-311+G(d,p) Geom=Check Guess=Read Stable=Opt Pop=NBO7Read Density=Current scrf=(smd,solvent=water)

mol_009_Z SP+NBO7/CMO after constrained opt at R0+0.05A  [oxime: C8=N9-O10]

1 1

$NBO CMO PRINT=2 E2PERT=0.05 BNDIDX $END

--Link1--
%chk=mol_009_Z_scan_pt2.chk
%nprocshared=8
%mem=16GB
#p wB97XD/6-311+G(d,p) opt=(ModRedundant) SCF=(Tight,XQC) NoSymm scrf=(smd,solvent=water)

mol_009_Z scan pt2 (R0+0.10A) rigid O-N displacement then constrained opt  [oxime: C8=N9-O10]

1 1
C        3.30851000      1.34320800      0.08850300
C        2.13172300      0.40758700      0.03281400
C        2.34091200     -0.97891600     -0.05100300
C        1.28816600     -1.87898500     -0.09478800
C       -0.01429500     -1.39561400     -0.05179700
C       -0.23809000     -0.01762600      0.02887200
C        0.83092000      0.88874100      0.06809800
C       -1.68316700      0.19784200      0.07019200
N       -2.44608400      1.22439700      0.00336100
O       -1.53672609      2.54581679     -0.12307901
C       -2.37758800     -1.13649300      0.21256800
C       -1.29327800     -2.17852300     -0.10530200
H        3.92545600      1.13741500      0.96773200
H        3.94453900      1.22009900     -0.79240200
H        2.98351900      2.38401300      0.13451500
H        3.36036300     -1.35124300     -0.07966800
H        1.47771000     -2.94461100     -0.15825200
H        0.66218100      1.95403000      0.14030100
H       -2.07308309      3.28076479      0.22413999
H       -1.36780609      2.72771879     -1.06781501
H       -2.70538500     -1.22300700      1.25194400
H       -3.25768800     -1.20299700     -0.42537900
H       -1.43446100     -2.59781100     -1.10496800
H       -1.29668400     -3.00777600      0.60342100

B 9 10 F

--Link1--
%chk=mol_009_Z_scan_pt2.chk
%nprocshared=8
%mem=16GB
#p wB97XD/6-311+G(d,p) Geom=Check Guess=Read Stable=Opt Pop=NBO7Read Density=Current scrf=(smd,solvent=water)

mol_009_Z SP+NBO7/CMO after constrained opt at R0+0.10A  [oxime: C8=N9-O10]

1 1

$NBO CMO PRINT=2 E2PERT=0.05 BNDIDX $END

--Link1--
%chk=mol_009_Z_scan_pt3.chk
%nprocshared=8
%mem=16GB
#p wB97XD/6-311+G(d,p) opt=(ModRedundant) SCF=(Tight,XQC) NoSymm scrf=(smd,solvent=water)

mol_009_Z scan pt3 (R0+0.15A) rigid O-N displacement then constrained opt  [oxime: C8=N9-O10]

1 1
C        3.30851000      1.34320800      0.08850300
C        2.13172300      0.40758700      0.03281400
C        2.34091200     -0.97891600     -0.05100300
C        1.28816600     -1.87898500     -0.09478800
C       -0.01429500     -1.39561400     -0.05179700
C       -0.23809000     -0.01762600      0.02887200
C        0.83092000      0.88874100      0.06809800
C       -1.68316700      0.19784200      0.07019200
N       -2.44608400      1.22439700      0.00336100
O       -1.50846864      2.58687868     -0.12700802
C       -2.37758800     -1.13649300      0.21256800
C       -1.29327800     -2.17852300     -0.10530200
H        3.92545600      1.13741500      0.96773200
H        3.94453900      1.22009900     -0.79240200
H        2.98351900      2.38401300      0.13451500
H        3.36036300     -1.35124300     -0.07966800
H        1.47771000     -2.94461100     -0.15825200
H        0.66218100      1.95403000      0.14030100
H       -2.04482564      3.32182668      0.22021098
H       -1.33954864      2.76878068     -1.07174402
H       -2.70538500     -1.22300700      1.25194400
H       -3.25768800     -1.20299700     -0.42537900
H       -1.43446100     -2.59781100     -1.10496800
H       -1.29668400     -3.00777600      0.60342100

B 9 10 F

--Link1--
%chk=mol_009_Z_scan_pt3.chk
%nprocshared=8
%mem=16GB
#p wB97XD/6-311+G(d,p) Geom=Check Guess=Read Stable=Opt Pop=NBO7Read Density=Current scrf=(smd,solvent=water)

mol_009_Z SP+NBO7/CMO after constrained opt at R0+0.15A  [oxime: C8=N9-O10]

1 1

$NBO CMO PRINT=2 E2PERT=0.05 BNDIDX $END

--Link1--
%chk=mol_009_Z_scan_pt4.chk
%nprocshared=8
%mem=16GB
#p wB97XD/6-311+G(d,p) opt=(ModRedundant) SCF=(Tight,XQC) NoSymm scrf=(smd,solvent=water)

mol_009_Z scan pt4 (R0+0.20A) rigid O-N displacement then constrained opt  [oxime: C8=N9-O10]

1 1
C        3.30851000      1.34320800      0.08850300
C        2.13172300      0.40758700      0.03281400
C        2.34091200     -0.97891600     -0.05100300
C        1.28816600     -1.87898500     -0.09478800
C       -0.01429500     -1.39561400     -0.05179700
C       -0.23809000     -0.01762600      0.02887200
C        0.83092000      0.88874100      0.06809800
C       -1.68316700      0.19784200      0.07019200
N       -2.44608400      1.22439700      0.00336100
O       -1.48021118      2.62794058     -0.13093702
C       -2.37758800     -1.13649300      0.21256800
C       -1.29327800     -2.17852300     -0.10530200
H        3.92545600      1.13741500      0.96773200
H        3.94453900      1.22009900     -0.79240200
H        2.98351900      2.38401300      0.13451500
H        3.36036300     -1.35124300     -0.07966800
H        1.47771000     -2.94461100     -0.15825200
H        0.66218100      1.95403000      0.14030100
H       -2.01656818      3.36288858      0.21628198
H       -1.31129118      2.80984258     -1.07567302
H       -2.70538500     -1.22300700      1.25194400
H       -3.25768800     -1.20299700     -0.42537900
H       -1.43446100     -2.59781100     -1.10496800
H       -1.29668400     -3.00777600      0.60342100

B 9 10 F

--Link1--
%chk=mol_009_Z_scan_pt4.chk
%nprocshared=8
%mem=16GB
#p wB97XD/6-311+G(d,p) Geom=Check Guess=Read Stable=Opt Pop=NBO7Read Density=Current scrf=(smd,solvent=water)

mol_009_Z SP+NBO7/CMO after constrained opt at R0+0.20A  [oxime: C8=N9-O10]

1 1

$NBO CMO PRINT=2 E2PERT=0.05 BNDIDX $END

--Link1--
%chk=mol_009_Z_scan_pt5.chk
%nprocshared=8
%mem=16GB
#p wB97XD/6-311+G(d,p) opt=(ModRedundant) SCF=(Tight,XQC) NoSymm scrf=(smd,solvent=water)

mol_009_Z scan pt5 (R0+0.25A) rigid O-N displacement then constrained opt  [oxime: C8=N9-O10]

1 1
C        3.30851000      1.34320800      0.08850300
C        2.13172300      0.40758700      0.03281400
C        2.34091200     -0.97891600     -0.05100300
C        1.28816600     -1.87898500     -0.09478800
C       -0.01429500     -1.39561400     -0.05179700
C       -0.23809000     -0.01762600      0.02887200
C        0.83092000      0.88874100      0.06809800
C       -1.68316700      0.19784200      0.07019200
N       -2.44608400      1.22439700      0.00336100
O       -1.45195373      2.66900247     -0.13486603
C       -2.37758800     -1.13649300      0.21256800
C       -1.29327800     -2.17852300     -0.10530200
H        3.92545600      1.13741500      0.96773200
H        3.94453900      1.22009900     -0.79240200
H        2.98351900      2.38401300      0.13451500
H        3.36036300     -1.35124300     -0.07966800
H        1.47771000     -2.94461100     -0.15825200
H        0.66218100      1.95403000      0.14030100
H       -1.98831073      3.40395047      0.21235297
H       -1.28303373      2.85090447     -1.07960203
H       -2.70538500     -1.22300700      1.25194400
H       -3.25768800     -1.20299700     -0.42537900
H       -1.43446100     -2.59781100     -1.10496800
H       -1.29668400     -3.00777600      0.60342100

B 9 10 F

--Link1--
%chk=mol_009_Z_scan_pt5.chk
%nprocshared=8
%mem=16GB
#p wB97XD/6-311+G(d,p) Geom=Check Guess=Read Stable=Opt Pop=NBO7Read Density=Current scrf=(smd,solvent=water)

mol_009_Z SP+NBO7/CMO after constrained opt at R0+0.25A  [oxime: C8=N9-O10]

1 1

$NBO CMO PRINT=2 E2PERT=0.05 BNDIDX $END

--Link1--
%chk=mol_009_Z_scan_pt6.chk
%nprocshared=8
%mem=16GB
#p wB97XD/6-311+G(d,p) opt=(ModRedundant) SCF=(Tight,XQC) NoSymm scrf=(smd,solvent=water)

mol_009_Z scan pt6 (R0+0.30A) rigid O-N displacement then constrained opt  [oxime: C8=N9-O10]

1 1
C        3.30851000      1.34320800      0.08850300
C        2.13172300      0.40758700      0.03281400
C        2.34091200     -0.97891600     -0.05100300
C        1.28816600     -1.87898500     -0.09478800
C       -0.01429500     -1.39561400     -0.05179700
C       -0.23809000     -0.01762600      0.02887200
C        0.83092000      0.88874100      0.06809800
C       -1.68316700      0.19784200      0.07019200
N       -2.44608400      1.22439700      0.00336100
O       -1.42369628      2.71006437     -0.13879504
C       -2.37758800     -1.13649300      0.21256800
C       -1.29327800     -2.17852300     -0.10530200
H        3.92545600      1.13741500      0.96773200
H        3.94453900      1.22009900     -0.79240200
H        2.98351900      2.38401300      0.13451500
H        3.36036300     -1.35124300     -0.07966800
H        1.47771000     -2.94461100     -0.15825200
H        0.66218100      1.95403000      0.14030100
H       -1.96005328      3.44501237      0.20842396
H       -1.25477628      2.89196637     -1.08353104
H       -2.70538500     -1.22300700      1.25194400
H       -3.25768800     -1.20299700     -0.42537900
H       -1.43446100     -2.59781100     -1.10496800
H       -1.29668400     -3.00777600      0.60342100

B 9 10 F

--Link1--
%chk=mol_009_Z_scan_pt6.chk
%nprocshared=8
%mem=16GB
#p wB97XD/6-311+G(d,p) Geom=Check Guess=Read Stable=Opt Pop=NBO7Read Density=Current scrf=(smd,solvent=water)

mol_009_Z SP+NBO7/CMO after constrained opt at R0+0.30A  [oxime: C8=N9-O10]

1 1

$NBO CMO PRINT=2 E2PERT=0.05 BNDIDX $END


