%chk=mol_009_Z_opt.chk
%nprocshared=8
%mem=16GB
#p wB97XD/6-311+G(d,p) opt scrf=(smd,solvent=water)

mol_009_Z opt  [oxime: C8=N9-O10]

1 1
C        3.42720000      0.18510000      0.12010000
C        2.01180000     -0.22880000     -0.12680000
C        1.72080000     -1.42980000     -0.79530000
C        0.42920000     -1.86920000     -1.02090000
C       -0.63330000     -1.10160000     -0.57510000
C       -0.36500000      0.10720000      0.09060000
C        0.94750000      0.53930000      0.31680000
C       -1.63870000      0.70810000      0.44820000
N       -2.10270000      1.78660000      0.93230000
O       -0.79750000      2.83090000      1.30980000
C       -2.77230000     -0.26150000      0.10630000
C       -2.09210000     -1.37210000     -0.71640000
H        3.87170000     -0.42000000      0.91170000
H        4.04260000      0.04470000     -0.76660000
H        3.50150000      1.22610000      0.42470000
H        2.54050000     -2.04040000     -1.14870000
H        0.25440000     -2.80220000     -1.53850000
H        1.16720000      1.45440000      0.84480000
H       -1.15560000      3.25750000      2.11110000
H       -0.83660000      3.48160000      0.58280000
H       -3.18230000     -0.64450000      1.03670000
H       -3.58150000      0.23560000     -0.41810000
H       -2.39470000     -1.32050000     -1.76200000
H       -2.36200000     -2.36640000     -0.36740000


