21
mol_011_E_opt
O        3.437800      0.776200      0.518400
N        1.893000      1.320900      0.281800
C        1.164800      0.289300      0.087200
C        1.494900     -1.177900      0.049900
C        0.159600     -1.884500     -0.234600
C       -0.845700     -0.779000     -0.334200
C       -2.207200     -0.862800     -0.575400
C       -2.962600      0.297300     -0.628900
C       -2.352900      1.538600     -0.441000
F       -3.112300      2.638200     -0.499400
C       -0.998900      1.668400     -0.197900
C       -0.261600      0.483500     -0.148700
H        3.924100      1.280900     -0.162800
H        3.653000      1.183900      1.380200
H        2.247100     -1.354700     -0.716100
H        1.939500     -1.465400      1.000500
H        0.204600     -2.459700     -1.156200
H       -0.097300     -2.581300      0.559400
H       -2.688900     -1.818300     -0.722200
H       -4.026000      0.257900     -0.815400
H       -0.565000      2.648400     -0.057900
