%chk=mol_018_Z_scan_pt1.chk
%nprocshared=8
%mem=16GB
#p wB97XD/6-311+G(d,p) opt=(ModRedundant) SCF=(Tight,XQC) NoSymm scrf=(smd,solvent=water)

mol_018_Z scan pt1 (R0+0.05A) rigid O-N displacement then constrained opt  [oxime: C12=N13-O14]

1 1
O        3.76004900      0.36399800      0.26219000
N        2.78218800     -0.27676800     -0.08302200
O        2.83738600     -1.42628800     -0.48277900
C        1.47401600      0.37181600     -0.02080300
C        1.43825600      1.75986100      0.01361900
C        0.21566800      2.41449500      0.06629600
C       -0.96804300      1.69222000      0.09150600
C       -0.90928600      0.29772300      0.06767300
C        0.31161500     -0.38977500      0.01302300
C        0.11807700     -1.87720200      0.01207800
C       -1.36714300     -2.05540000      0.35763300
C       -1.98040600     -0.70333200      0.11267600
N       -3.25061700     -0.66951400     -0.03242900
O       -3.69310001      0.80364886     -0.27691574
H        2.36283100      2.32144900     -0.00855400
H        0.19025300      3.49621400      0.08881600
H       -1.91303700      2.21178300      0.14167100
H        0.34348700     -2.27599600     -0.97927500
H        0.77453500     -2.37790400      0.72306500
H       -1.48843800     -2.27722400      1.42167400
H       -1.86208800     -2.83897300     -0.21313900
H       -4.13780001      0.82739486     -1.14536774
H       -4.36399901      1.01684886      0.39860726

B 13 14 F

--Link1--
%chk=mol_018_Z_scan_pt1.chk
%nprocshared=8
%mem=16GB
#p wB97XD/6-311+G(d,p) Geom=Check Guess=Read Stable=Opt Pop=NBO7Read Density=Current scrf=(smd,solvent=water)

mol_018_Z SP+NBO7/CMO after constrained opt at R0+0.05A  [oxime: C12=N13-O14]

1 1

$NBO CMO PRINT=2 E2PERT=0.05 BNDIDX $END

--Link1--
%chk=mol_018_Z_scan_pt2.chk
%nprocshared=8
%mem=16GB
#p wB97XD/6-311+G(d,p) opt=(ModRedundant) SCF=(Tight,XQC) NoSymm scrf=(smd,solvent=water)

mol_018_Z scan pt2 (R0+0.10A) rigid O-N displacement then constrained opt  [oxime: C12=N13-O14]

1 1
O        3.76004900      0.36399800      0.26219000
N        2.78218800     -0.27676800     -0.08302200
O        2.83738600     -1.42628800     -0.48277900
C        1.47401600      0.37181600     -0.02080300
C        1.43825600      1.75986100      0.01361900
C        0.21566800      2.41449500      0.06629600
C       -0.96804300      1.69222000      0.09150600
C       -0.90928600      0.29772300      0.06767300
C        0.31161500     -0.38977500      0.01302300
C        0.11807700     -1.87720200      0.01207800
C       -1.36714300     -2.05540000      0.35763300
C       -1.98040600     -0.70333200      0.11267600
N       -3.25061700     -0.66951400     -0.03242900
O       -3.70730501      0.85094173     -0.28476449
H        2.36283100      2.32144900     -0.00855400
H        0.19025300      3.49621400      0.08881600
H       -1.91303700      2.21178300      0.14167100
H        0.34348700     -2.27599600     -0.97927500
H        0.77453500     -2.37790400      0.72306500
H       -1.48843800     -2.27722400      1.42167400
H       -1.86208800     -2.83897300     -0.21313900
H       -4.15200501      0.87468773     -1.15321649
H       -4.37820401      1.06414173      0.39075851

B 13 14 F

--Link1--
%chk=mol_018_Z_scan_pt2.chk
%nprocshared=8
%mem=16GB
#p wB97XD/6-311+G(d,p) Geom=Check Guess=Read Stable=Opt Pop=NBO7Read Density=Current scrf=(smd,solvent=water)

mol_018_Z SP+NBO7/CMO after constrained opt at R0+0.10A  [oxime: C12=N13-O14]

1 1

$NBO CMO PRINT=2 E2PERT=0.05 BNDIDX $END

--Link1--
%chk=mol_018_Z_scan_pt3.chk
%nprocshared=8
%mem=16GB
#p wB97XD/6-311+G(d,p) opt=(ModRedundant) SCF=(Tight,XQC) NoSymm scrf=(smd,solvent=water)

mol_018_Z scan pt3 (R0+0.15A) rigid O-N displacement then constrained opt  [oxime: C12=N13-O14]

1 1
O        3.76004900      0.36399800      0.26219000
N        2.78218800     -0.27676800     -0.08302200
O        2.83738600     -1.42628800     -0.48277900
C        1.47401600      0.37181600     -0.02080300
C        1.43825600      1.75986100      0.01361900
C        0.21566800      2.41449500      0.06629600
C       -0.96804300      1.69222000      0.09150600
C       -0.90928600      0.29772300      0.06767300
C        0.31161500     -0.38977500      0.01302300
C        0.11807700     -1.87720200      0.01207800
C       -1.36714300     -2.05540000      0.35763300
C       -1.98040600     -0.70333200      0.11267600
N       -3.25061700     -0.66951400     -0.03242900
O       -3.72151002      0.89823459     -0.29261323
H        2.36283100      2.32144900     -0.00855400
H        0.19025300      3.49621400      0.08881600
H       -1.91303700      2.21178300      0.14167100
H        0.34348700     -2.27599600     -0.97927500
H        0.77453500     -2.37790400      0.72306500
H       -1.48843800     -2.27722400      1.42167400
H       -1.86208800     -2.83897300     -0.21313900
H       -4.16621002      0.92198059     -1.16106523
H       -4.39240902      1.11143459      0.38290977

B 13 14 F

--Link1--
%chk=mol_018_Z_scan_pt3.chk
%nprocshared=8
%mem=16GB
#p wB97XD/6-311+G(d,p) Geom=Check Guess=Read Stable=Opt Pop=NBO7Read Density=Current scrf=(smd,solvent=water)

mol_018_Z SP+NBO7/CMO after constrained opt at R0+0.15A  [oxime: C12=N13-O14]

1 1

$NBO CMO PRINT=2 E2PERT=0.05 BNDIDX $END

--Link1--
%chk=mol_018_Z_scan_pt4.chk
%nprocshared=8
%mem=16GB
#p wB97XD/6-311+G(d,p) opt=(ModRedundant) SCF=(Tight,XQC) NoSymm scrf=(smd,solvent=water)

mol_018_Z scan pt4 (R0+0.20A) rigid O-N displacement then constrained opt  [oxime: C12=N13-O14]

1 1
O        3.76004900      0.36399800      0.26219000
N        2.78218800     -0.27676800     -0.08302200
O        2.83738600     -1.42628800     -0.48277900
C        1.47401600      0.37181600     -0.02080300
C        1.43825600      1.75986100      0.01361900
C        0.21566800      2.41449500      0.06629600
C       -0.96804300      1.69222000      0.09150600
C       -0.90928600      0.29772300      0.06767300
C        0.31161500     -0.38977500      0.01302300
C        0.11807700     -1.87720200      0.01207800
C       -1.36714300     -2.05540000      0.35763300
C       -1.98040600     -0.70333200      0.11267600
N       -3.25061700     -0.66951400     -0.03242900
O       -3.73571503      0.94552746     -0.30046198
H        2.36283100      2.32144900     -0.00855400
H        0.19025300      3.49621400      0.08881600
H       -1.91303700      2.21178300      0.14167100
H        0.34348700     -2.27599600     -0.97927500
H        0.77453500     -2.37790400      0.72306500
H       -1.48843800     -2.27722400      1.42167400
H       -1.86208800     -2.83897300     -0.21313900
H       -4.18041503      0.96927346     -1.16891398
H       -4.40661403      1.15872746      0.37506102

B 13 14 F

--Link1--
%chk=mol_018_Z_scan_pt4.chk
%nprocshared=8
%mem=16GB
#p wB97XD/6-311+G(d,p) Geom=Check Guess=Read Stable=Opt Pop=NBO7Read Density=Current scrf=(smd,solvent=water)

mol_018_Z SP+NBO7/CMO after constrained opt at R0+0.20A  [oxime: C12=N13-O14]

1 1

$NBO CMO PRINT=2 E2PERT=0.05 BNDIDX $END

--Link1--
%chk=mol_018_Z_scan_pt5.chk
%nprocshared=8
%mem=16GB
#p wB97XD/6-311+G(d,p) opt=(ModRedundant) SCF=(Tight,XQC) NoSymm scrf=(smd,solvent=water)

mol_018_Z scan pt5 (R0+0.25A) rigid O-N displacement then constrained opt  [oxime: C12=N13-O14]

1 1
O        3.76004900      0.36399800      0.26219000
N        2.78218800     -0.27676800     -0.08302200
O        2.83738600     -1.42628800     -0.48277900
C        1.47401600      0.37181600     -0.02080300
C        1.43825600      1.75986100      0.01361900
C        0.21566800      2.41449500      0.06629600
C       -0.96804300      1.69222000      0.09150600
C       -0.90928600      0.29772300      0.06767300
C        0.31161500     -0.38977500      0.01302300
C        0.11807700     -1.87720200      0.01207800
C       -1.36714300     -2.05540000      0.35763300
C       -1.98040600     -0.70333200      0.11267600
N       -3.25061700     -0.66951400     -0.03242900
O       -3.74992003      0.99282032     -0.30831072
H        2.36283100      2.32144900     -0.00855400
H        0.19025300      3.49621400      0.08881600
H       -1.91303700      2.21178300      0.14167100
H        0.34348700     -2.27599600     -0.97927500
H        0.77453500     -2.37790400      0.72306500
H       -1.48843800     -2.27722400      1.42167400
H       -1.86208800     -2.83897300     -0.21313900
H       -4.19462003      1.01656632     -1.17676272
H       -4.42081903      1.20602032      0.36721228

B 13 14 F

--Link1--
%chk=mol_018_Z_scan_pt5.chk
%nprocshared=8
%mem=16GB
#p wB97XD/6-311+G(d,p) Geom=Check Guess=Read Stable=Opt Pop=NBO7Read Density=Current scrf=(smd,solvent=water)

mol_018_Z SP+NBO7/CMO after constrained opt at R0+0.25A  [oxime: C12=N13-O14]

1 1

$NBO CMO PRINT=2 E2PERT=0.05 BNDIDX $END

--Link1--
%chk=mol_018_Z_scan_pt6.chk
%nprocshared=8
%mem=16GB
#p wB97XD/6-311+G(d,p) opt=(ModRedundant) SCF=(Tight,XQC) NoSymm scrf=(smd,solvent=water)

mol_018_Z scan pt6 (R0+0.30A) rigid O-N displacement then constrained opt  [oxime: C12=N13-O14]

1 1
O        3.76004900      0.36399800      0.26219000
N        2.78218800     -0.27676800     -0.08302200
O        2.83738600     -1.42628800     -0.48277900
C        1.47401600      0.37181600     -0.02080300
C        1.43825600      1.75986100      0.01361900
C        0.21566800      2.41449500      0.06629600
C       -0.96804300      1.69222000      0.09150600
C       -0.90928600      0.29772300      0.06767300
C        0.31161500     -0.38977500      0.01302300
C        0.11807700     -1.87720200      0.01207800
C       -1.36714300     -2.05540000      0.35763300
C       -1.98040600     -0.70333200      0.11267600
N       -3.25061700     -0.66951400     -0.03242900
O       -3.76412504      1.04011318     -0.31615946
H        2.36283100      2.32144900     -0.00855400
H        0.19025300      3.49621400      0.08881600
H       -1.91303700      2.21178300      0.14167100
H        0.34348700     -2.27599600     -0.97927500
H        0.77453500     -2.37790400      0.72306500
H       -1.48843800     -2.27722400      1.42167400
H       -1.86208800     -2.83897300     -0.21313900
H       -4.20882504      1.06385918     -1.18461146
H       -4.43502404      1.25331318      0.35936354

B 13 14 F

--Link1--
%chk=mol_018_Z_scan_pt6.chk
%nprocshared=8
%mem=16GB
#p wB97XD/6-311+G(d,p) Geom=Check Guess=Read Stable=Opt Pop=NBO7Read Density=Current scrf=(smd,solvent=water)

mol_018_Z SP+NBO7/CMO after constrained opt at R0+0.30A  [oxime: C12=N13-O14]

1 1

$NBO CMO PRINT=2 E2PERT=0.05 BNDIDX $END


