%chk=mol_030_Z_opt.chk
%nprocshared=10
%mem=16GB
#p wB97XD/6-311+G(d,p) opt scrf=(smd,solvent=water)

mol_030_Z opt  [oxime: C12=N13-O14]

1 1
C        3.96640000     -0.39260000     -0.14650000
O        2.59600000     -0.79680000     -0.15880000
C        1.63950000      0.14050000     -0.05010000
C        1.88730000      1.50800000      0.04820000
C        0.83520000      2.40200000      0.18860000
C       -0.46620000      1.95370000      0.20520000
C       -0.72320000      0.57880000      0.07660000
C        0.31800000     -0.35450000     -0.02320000
C        0.09930000     -1.84070000     -0.03100000
C       -1.34320000     -2.27400000     -0.23720000
C       -2.28810000     -1.38950000      0.56060000
C       -2.08550000      0.03570000      0.07280000
N       -3.20990000      0.45130000     -0.32610000
O       -3.02370000      2.01960000     -1.07170000
H        4.54160000     -1.30610000     -0.23370000
H        4.21080000      0.10620000      0.79010000
H        4.18440000      0.25860000     -0.99160000
H        2.89720000      1.88670000      0.03100000
H        1.04670000      3.45550000      0.29750000
H       -1.26670000      2.65680000      0.37250000
H        0.46460000     -2.22540000      0.92450000
H        0.73960000     -2.29780000     -0.78270000
H       -1.46340000     -3.31130000      0.06870000
H       -1.60970000     -2.22920000     -1.29370000
H       -3.32760000     -1.68650000      0.46170000
H       -2.03280000     -1.40130000      1.62010000
H       -3.96350000      2.23330000     -1.21720000
H       -2.62290000      1.81900000     -1.93870000


