%chk=mol_030_Z_scan_pt1.chk
%nprocshared=10
%mem=16GB
#p wB97XD/6-311+G(d,p) opt=(ModRedundant) SCF=(Tight,XQC) NoSymm scrf=(smd,solvent=water)

mol_030_Z scan pt1 (R0+0.05A) rigid O-N displacement then constrained opt  [oxime: C12=N13-O14]

1 1
C        4.11395700      0.16621300      0.22146700
O        2.79340600      0.69777500      0.21415600
C        1.75520000     -0.15990500      0.03018200
C        1.91091900     -1.52833700     -0.14697400
C        0.79035700     -2.32628800     -0.36473100
C       -0.47559400     -1.77766900     -0.37547900
C       -0.63360800     -0.39703000     -0.17239700
C        0.48068800      0.43457100      0.00953800
C        0.38525300      1.93515400      0.12908500
C       -1.04201200      2.45995900      0.22561400
C       -1.97103400      1.68569900     -0.70974800
C       -1.95295300      0.25898500     -0.24290100
N       -3.12131600     -0.14564700      0.08846200
O       -3.05451217     -1.59102852      0.69338820
H        4.77434000      1.01786700      0.37387800
H        4.34910600     -0.31262000     -0.73337400
H        4.24495200     -0.54890500      1.03848000
H        2.89315400     -1.98158700     -0.13355400
H        0.91886400     -3.38930300     -0.53049000
H       -1.32999500     -2.40727300     -0.57085100
H        0.87517600      2.36285900     -0.75381200
H        0.96967600      2.27007500      0.98898200
H       -1.06796800      3.51917200     -0.03500500
H       -1.41350500      2.36782500      1.25095900
H       -2.98590800      2.08128500     -0.69151800
H       -1.59581700      1.71414300     -1.73738000
H       -3.94205917     -1.97229052      0.57027720
H       -2.89769317     -1.52461252      1.65475920

B 13 14 F

--Link1--
%chk=mol_030_Z_scan_pt1.chk
%nprocshared=10
%mem=16GB
#p wB97XD/6-311+G(d,p) Geom=Check Guess=Read Stable=Opt Pop=NBO7Read Density=Current scrf=(smd,solvent=water)

mol_030_Z SP+NBO7/CMO after constrained opt at R0+0.05A  [oxime: C12=N13-O14]

1 1

$NBO CMO PRINT=2 E2PERT=0.05 BNDIDX $END

--Link1--
%chk=mol_030_Z_scan_pt2.chk
%nprocshared=10
%mem=16GB
#p wB97XD/6-311+G(d,p) opt=(ModRedundant) SCF=(Tight,XQC) NoSymm scrf=(smd,solvent=water)

mol_030_Z scan pt2 (R0+0.10A) rigid O-N displacement then constrained opt  [oxime: C12=N13-O14]

1 1
C        4.11395700      0.16621300      0.22146700
O        2.79340600      0.69777500      0.21415600
C        1.75520000     -0.15990500      0.03018200
C        1.91091900     -1.52833700     -0.14697400
C        0.79035700     -2.32628800     -0.36473100
C       -0.47559400     -1.77766900     -0.37547900
C       -0.63360800     -0.39703000     -0.17239700
C        0.48068800      0.43457100      0.00953800
C        0.38525300      1.93515400      0.12908500
C       -1.04201200      2.45995900      0.22561400
C       -1.97103400      1.68569900     -0.70974800
C       -1.95295300      0.25898500     -0.24290100
N       -3.12131600     -0.14564700      0.08846200
O       -3.05238233     -1.63711004      0.71267440
H        4.77434000      1.01786700      0.37387800
H        4.34910600     -0.31262000     -0.73337400
H        4.24495200     -0.54890500      1.03848000
H        2.89315400     -1.98158700     -0.13355400
H        0.91886400     -3.38930300     -0.53049000
H       -1.32999500     -2.40727300     -0.57085100
H        0.87517600      2.36285900     -0.75381200
H        0.96967600      2.27007500      0.98898200
H       -1.06796800      3.51917200     -0.03500500
H       -1.41350500      2.36782500      1.25095900
H       -2.98590800      2.08128500     -0.69151800
H       -1.59581700      1.71414300     -1.73738000
H       -3.93992933     -2.01837204      0.58956340
H       -2.89556333     -1.57069404      1.67404540

B 13 14 F

--Link1--
%chk=mol_030_Z_scan_pt2.chk
%nprocshared=10
%mem=16GB
#p wB97XD/6-311+G(d,p) Geom=Check Guess=Read Stable=Opt Pop=NBO7Read Density=Current scrf=(smd,solvent=water)

mol_030_Z SP+NBO7/CMO after constrained opt at R0+0.10A  [oxime: C12=N13-O14]

1 1

$NBO CMO PRINT=2 E2PERT=0.05 BNDIDX $END

--Link1--
%chk=mol_030_Z_scan_pt3.chk
%nprocshared=10
%mem=16GB
#p wB97XD/6-311+G(d,p) opt=(ModRedundant) SCF=(Tight,XQC) NoSymm scrf=(smd,solvent=water)

mol_030_Z scan pt3 (R0+0.15A) rigid O-N displacement then constrained opt  [oxime: C12=N13-O14]

1 1
C        4.11395700      0.16621300      0.22146700
O        2.79340600      0.69777500      0.21415600
C        1.75520000     -0.15990500      0.03018200
C        1.91091900     -1.52833700     -0.14697400
C        0.79035700     -2.32628800     -0.36473100
C       -0.47559400     -1.77766900     -0.37547900
C       -0.63360800     -0.39703000     -0.17239700
C        0.48068800      0.43457100      0.00953800
C        0.38525300      1.93515400      0.12908500
C       -1.04201200      2.45995900      0.22561400
C       -1.97103400      1.68569900     -0.70974800
C       -1.95295300      0.25898500     -0.24290100
N       -3.12131600     -0.14564700      0.08846200
O       -3.05025250     -1.68319155      0.73196060
H        4.77434000      1.01786700      0.37387800
H        4.34910600     -0.31262000     -0.73337400
H        4.24495200     -0.54890500      1.03848000
H        2.89315400     -1.98158700     -0.13355400
H        0.91886400     -3.38930300     -0.53049000
H       -1.32999500     -2.40727300     -0.57085100
H        0.87517600      2.36285900     -0.75381200
H        0.96967600      2.27007500      0.98898200
H       -1.06796800      3.51917200     -0.03500500
H       -1.41350500      2.36782500      1.25095900
H       -2.98590800      2.08128500     -0.69151800
H       -1.59581700      1.71414300     -1.73738000
H       -3.93779950     -2.06445355      0.60884960
H       -2.89343350     -1.61677555      1.69333160

B 13 14 F

--Link1--
%chk=mol_030_Z_scan_pt3.chk
%nprocshared=10
%mem=16GB
#p wB97XD/6-311+G(d,p) Geom=Check Guess=Read Stable=Opt Pop=NBO7Read Density=Current scrf=(smd,solvent=water)

mol_030_Z SP+NBO7/CMO after constrained opt at R0+0.15A  [oxime: C12=N13-O14]

1 1

$NBO CMO PRINT=2 E2PERT=0.05 BNDIDX $END

--Link1--
%chk=mol_030_Z_scan_pt4.chk
%nprocshared=10
%mem=16GB
#p wB97XD/6-311+G(d,p) opt=(ModRedundant) SCF=(Tight,XQC) NoSymm scrf=(smd,solvent=water)

mol_030_Z scan pt4 (R0+0.20A) rigid O-N displacement then constrained opt  [oxime: C12=N13-O14]

1 1
C        4.11395700      0.16621300      0.22146700
O        2.79340600      0.69777500      0.21415600
C        1.75520000     -0.15990500      0.03018200
C        1.91091900     -1.52833700     -0.14697400
C        0.79035700     -2.32628800     -0.36473100
C       -0.47559400     -1.77766900     -0.37547900
C       -0.63360800     -0.39703000     -0.17239700
C        0.48068800      0.43457100      0.00953800
C        0.38525300      1.93515400      0.12908500
C       -1.04201200      2.45995900      0.22561400
C       -1.97103400      1.68569900     -0.70974800
C       -1.95295300      0.25898500     -0.24290100
N       -3.12131600     -0.14564700      0.08846200
O       -3.04812267     -1.72927307      0.75124680
H        4.77434000      1.01786700      0.37387800
H        4.34910600     -0.31262000     -0.73337400
H        4.24495200     -0.54890500      1.03848000
H        2.89315400     -1.98158700     -0.13355400
H        0.91886400     -3.38930300     -0.53049000
H       -1.32999500     -2.40727300     -0.57085100
H        0.87517600      2.36285900     -0.75381200
H        0.96967600      2.27007500      0.98898200
H       -1.06796800      3.51917200     -0.03500500
H       -1.41350500      2.36782500      1.25095900
H       -2.98590800      2.08128500     -0.69151800
H       -1.59581700      1.71414300     -1.73738000
H       -3.93566967     -2.11053507      0.62813580
H       -2.89130367     -1.66285707      1.71261780

B 13 14 F

--Link1--
%chk=mol_030_Z_scan_pt4.chk
%nprocshared=10
%mem=16GB
#p wB97XD/6-311+G(d,p) Geom=Check Guess=Read Stable=Opt Pop=NBO7Read Density=Current scrf=(smd,solvent=water)

mol_030_Z SP+NBO7/CMO after constrained opt at R0+0.20A  [oxime: C12=N13-O14]

1 1

$NBO CMO PRINT=2 E2PERT=0.05 BNDIDX $END

--Link1--
%chk=mol_030_Z_scan_pt5.chk
%nprocshared=10
%mem=16GB
#p wB97XD/6-311+G(d,p) opt=(ModRedundant) SCF=(Tight,XQC) NoSymm scrf=(smd,solvent=water)

mol_030_Z scan pt5 (R0+0.25A) rigid O-N displacement then constrained opt  [oxime: C12=N13-O14]

1 1
C        4.11395700      0.16621300      0.22146700
O        2.79340600      0.69777500      0.21415600
C        1.75520000     -0.15990500      0.03018200
C        1.91091900     -1.52833700     -0.14697400
C        0.79035700     -2.32628800     -0.36473100
C       -0.47559400     -1.77766900     -0.37547900
C       -0.63360800     -0.39703000     -0.17239700
C        0.48068800      0.43457100      0.00953800
C        0.38525300      1.93515400      0.12908500
C       -1.04201200      2.45995900      0.22561400
C       -1.97103400      1.68569900     -0.70974800
C       -1.95295300      0.25898500     -0.24290100
N       -3.12131600     -0.14564700      0.08846200
O       -3.04599283     -1.77535459      0.77053300
H        4.77434000      1.01786700      0.37387800
H        4.34910600     -0.31262000     -0.73337400
H        4.24495200     -0.54890500      1.03848000
H        2.89315400     -1.98158700     -0.13355400
H        0.91886400     -3.38930300     -0.53049000
H       -1.32999500     -2.40727300     -0.57085100
H        0.87517600      2.36285900     -0.75381200
H        0.96967600      2.27007500      0.98898200
H       -1.06796800      3.51917200     -0.03500500
H       -1.41350500      2.36782500      1.25095900
H       -2.98590800      2.08128500     -0.69151800
H       -1.59581700      1.71414300     -1.73738000
H       -3.93353983     -2.15661659      0.64742200
H       -2.88917383     -1.70893859      1.73190400

B 13 14 F

--Link1--
%chk=mol_030_Z_scan_pt5.chk
%nprocshared=10
%mem=16GB
#p wB97XD/6-311+G(d,p) Geom=Check Guess=Read Stable=Opt Pop=NBO7Read Density=Current scrf=(smd,solvent=water)

mol_030_Z SP+NBO7/CMO after constrained opt at R0+0.25A  [oxime: C12=N13-O14]

1 1

$NBO CMO PRINT=2 E2PERT=0.05 BNDIDX $END

--Link1--
%chk=mol_030_Z_scan_pt6.chk
%nprocshared=10
%mem=16GB
#p wB97XD/6-311+G(d,p) opt=(ModRedundant) SCF=(Tight,XQC) NoSymm scrf=(smd,solvent=water)

mol_030_Z scan pt6 (R0+0.30A) rigid O-N displacement then constrained opt  [oxime: C12=N13-O14]

1 1
C        4.11395700      0.16621300      0.22146700
O        2.79340600      0.69777500      0.21415600
C        1.75520000     -0.15990500      0.03018200
C        1.91091900     -1.52833700     -0.14697400
C        0.79035700     -2.32628800     -0.36473100
C       -0.47559400     -1.77766900     -0.37547900
C       -0.63360800     -0.39703000     -0.17239700
C        0.48068800      0.43457100      0.00953800
C        0.38525300      1.93515400      0.12908500
C       -1.04201200      2.45995900      0.22561400
C       -1.97103400      1.68569900     -0.70974800
C       -1.95295300      0.25898500     -0.24290100
N       -3.12131600     -0.14564700      0.08846200
O       -3.04386300     -1.82143611      0.78981920
H        4.77434000      1.01786700      0.37387800
H        4.34910600     -0.31262000     -0.73337400
H        4.24495200     -0.54890500      1.03848000
H        2.89315400     -1.98158700     -0.13355400
H        0.91886400     -3.38930300     -0.53049000
H       -1.32999500     -2.40727300     -0.57085100
H        0.87517600      2.36285900     -0.75381200
H        0.96967600      2.27007500      0.98898200
H       -1.06796800      3.51917200     -0.03500500
H       -1.41350500      2.36782500      1.25095900
H       -2.98590800      2.08128500     -0.69151800
H       -1.59581700      1.71414300     -1.73738000
H       -3.93141000     -2.20269811      0.66670820
H       -2.88704400     -1.75502011      1.75119020

B 13 14 F

--Link1--
%chk=mol_030_Z_scan_pt6.chk
%nprocshared=10
%mem=16GB
#p wB97XD/6-311+G(d,p) Geom=Check Guess=Read Stable=Opt Pop=NBO7Read Density=Current scrf=(smd,solvent=water)

mol_030_Z SP+NBO7/CMO after constrained opt at R0+0.30A  [oxime: C12=N13-O14]

1 1

$NBO CMO PRINT=2 E2PERT=0.05 BNDIDX $END


