%chk=mol_028_Z_opt.chk
%nprocshared=10
%mem=16GB
#p wB97XD/6-311+G(d,p) opt scrf=(smd,solvent=water)

mol_028_Z opt  [oxime: C8=N9-O10]

1 1
C        2.37850000     -1.02720000      0.86300000
C        1.53130000      0.13530000      0.42770000
C        2.07330000      1.41310000      0.52870000
C        1.31530000      2.54280000      0.27360000
C       -0.02130000      2.42500000     -0.07510000
C       -0.60840000      1.17750000     -0.18430000
C        0.18490000      0.02500000      0.01790000
C       -0.51130000     -1.23200000     -0.24020000
N       -0.20330000     -2.25720000     -0.93360000
O        1.27980000     -2.09070000     -1.57270000
C       -1.93160000     -1.41080000      0.27790000
C       -2.64940000     -0.07180000      0.45740000
C       -2.07570000      1.01270000     -0.44680000
H        3.24810000     -1.15790000      0.21730000
H        1.84140000     -1.96880000      0.91510000
H        2.76330000     -0.82040000      1.85930000
H        3.10280000      1.51410000      0.84500000
H        1.76120000      3.52330000      0.36960000
H       -0.61940000      3.31130000     -0.23920000
H        1.37250000     -1.14220000     -1.82530000
H        1.19250000     -2.65140000     -2.36250000
H       -2.45580000     -2.08410000     -0.39870000
H       -1.84870000     -1.92860000      1.23330000
H       -2.56050000      0.25460000      1.49300000
H       -3.70910000     -0.21000000      0.25920000
H       -2.59310000      1.95230000     -0.26310000
H       -2.25720000      0.76600000     -1.49640000


