%chk=mol_028_Z_scan_pt1.chk
%nprocshared=10
%mem=16GB
#p wB97XD/6-311+G(d,p) opt=(ModRedundant) SCF=(Tight,XQC) NoSymm scrf=(smd,solvent=water)

mol_028_Z scan pt1 (R0+0.05A) rigid O-N displacement then constrained opt  [oxime: C8=N9-O10]

1 1
C       -1.52708900      1.99729100      0.94894800
C       -1.39462500      0.60092700      0.40529400
C       -2.53776700     -0.18717200      0.26343200
C       -2.46259100     -1.49428400     -0.19808400
C       -1.23117200     -2.06785100     -0.49560700
C       -0.06951900     -1.32198900     -0.35098500
C       -0.16665700      0.01801900      0.06286300
C        1.13948100      0.69613500      0.15380500
N        1.52551100      1.78217300     -0.40066000
O        0.33406470      2.37761001     -1.22460295
C        2.23428900     -0.01567000      0.90307200
C        2.19045600     -1.53759800      0.63326100
C        1.30687100     -1.88971600     -0.57000500
H       -1.83109300      2.69160400      0.16079500
H       -0.59630900      2.36726100      1.38263000
H       -2.29564100      2.02269200      1.72398800
H       -3.50033800      0.23543900      0.53169000
H       -3.36976800     -2.07898000     -0.30344400
H       -1.16859100     -3.09961900     -0.82368400
H        0.51777970      2.21131201     -2.16862595
H        0.35785670      3.34259801     -1.09071295
H        3.19707900      0.41598000      0.62881800
H        2.06635800      0.19118500      1.96374200
H        1.79860000     -2.05165800      1.51347100
H        3.20656000     -1.89728000      0.46774200
H        1.25189000     -2.97150600     -0.69889300
H        1.74409400     -1.47357600     -1.48508100

B 9 10 F

--Link1--
%chk=mol_028_Z_scan_pt1.chk
%nprocshared=10
%mem=16GB
#p wB97XD/6-311+G(d,p) Geom=Check Guess=Read Stable=Opt Pop=NBO7Read Density=Current scrf=(smd,solvent=water)

mol_028_Z SP+NBO7/CMO after constrained opt at R0+0.05A  [oxime: C8=N9-O10]

1 1

$NBO CMO PRINT=2 E2PERT=0.05 BNDIDX $END

--Link1--
%chk=mol_028_Z_scan_pt2.chk
%nprocshared=10
%mem=16GB
#p wB97XD/6-311+G(d,p) opt=(ModRedundant) SCF=(Tight,XQC) NoSymm scrf=(smd,solvent=water)

mol_028_Z scan pt2 (R0+0.10A) rigid O-N displacement then constrained opt  [oxime: C8=N9-O10]

1 1
C       -1.52708900      1.99729100      0.94894800
C       -1.39462500      0.60092700      0.40529400
C       -2.53776700     -0.18717200      0.26343200
C       -2.46259100     -1.49428400     -0.19808400
C       -1.23117200     -2.06785100     -0.49560700
C       -0.06951900     -1.32198900     -0.35098500
C       -0.16665700      0.01801900      0.06286300
C        1.13948100      0.69613500      0.15380500
N        1.52551100      1.78217300     -0.40066000
O        0.29602841      2.39661903     -1.25090689
C        2.23428900     -0.01567000      0.90307200
C        2.19045600     -1.53759800      0.63326100
C        1.30687100     -1.88971600     -0.57000500
H       -1.83109300      2.69160400      0.16079500
H       -0.59630900      2.36726100      1.38263000
H       -2.29564100      2.02269200      1.72398800
H       -3.50033800      0.23543900      0.53169000
H       -3.36976800     -2.07898000     -0.30344400
H       -1.16859100     -3.09961900     -0.82368400
H        0.47974341      2.23032103     -2.19492989
H        0.31982041      3.36160703     -1.11701689
H        3.19707900      0.41598000      0.62881800
H        2.06635800      0.19118500      1.96374200
H        1.79860000     -2.05165800      1.51347100
H        3.20656000     -1.89728000      0.46774200
H        1.25189000     -2.97150600     -0.69889300
H        1.74409400     -1.47357600     -1.48508100

B 9 10 F

--Link1--
%chk=mol_028_Z_scan_pt2.chk
%nprocshared=10
%mem=16GB
#p wB97XD/6-311+G(d,p) Geom=Check Guess=Read Stable=Opt Pop=NBO7Read Density=Current scrf=(smd,solvent=water)

mol_028_Z SP+NBO7/CMO after constrained opt at R0+0.10A  [oxime: C8=N9-O10]

1 1

$NBO CMO PRINT=2 E2PERT=0.05 BNDIDX $END

--Link1--
%chk=mol_028_Z_scan_pt3.chk
%nprocshared=10
%mem=16GB
#p wB97XD/6-311+G(d,p) opt=(ModRedundant) SCF=(Tight,XQC) NoSymm scrf=(smd,solvent=water)

mol_028_Z scan pt3 (R0+0.15A) rigid O-N displacement then constrained opt  [oxime: C8=N9-O10]

1 1
C       -1.52708900      1.99729100      0.94894800
C       -1.39462500      0.60092700      0.40529400
C       -2.53776700     -0.18717200      0.26343200
C       -2.46259100     -1.49428400     -0.19808400
C       -1.23117200     -2.06785100     -0.49560700
C       -0.06951900     -1.32198900     -0.35098500
C       -0.16665700      0.01801900      0.06286300
C        1.13948100      0.69613500      0.15380500
N        1.52551100      1.78217300     -0.40066000
O        0.25799211      2.41562804     -1.27721084
C        2.23428900     -0.01567000      0.90307200
C        2.19045600     -1.53759800      0.63326100
C        1.30687100     -1.88971600     -0.57000500
H       -1.83109300      2.69160400      0.16079500
H       -0.59630900      2.36726100      1.38263000
H       -2.29564100      2.02269200      1.72398800
H       -3.50033800      0.23543900      0.53169000
H       -3.36976800     -2.07898000     -0.30344400
H       -1.16859100     -3.09961900     -0.82368400
H        0.44170711      2.24933004     -2.22123384
H        0.28178411      3.38061604     -1.14332084
H        3.19707900      0.41598000      0.62881800
H        2.06635800      0.19118500      1.96374200
H        1.79860000     -2.05165800      1.51347100
H        3.20656000     -1.89728000      0.46774200
H        1.25189000     -2.97150600     -0.69889300
H        1.74409400     -1.47357600     -1.48508100

B 9 10 F

--Link1--
%chk=mol_028_Z_scan_pt3.chk
%nprocshared=10
%mem=16GB
#p wB97XD/6-311+G(d,p) Geom=Check Guess=Read Stable=Opt Pop=NBO7Read Density=Current scrf=(smd,solvent=water)

mol_028_Z SP+NBO7/CMO after constrained opt at R0+0.15A  [oxime: C8=N9-O10]

1 1

$NBO CMO PRINT=2 E2PERT=0.05 BNDIDX $END

--Link1--
%chk=mol_028_Z_scan_pt4.chk
%nprocshared=10
%mem=16GB
#p wB97XD/6-311+G(d,p) opt=(ModRedundant) SCF=(Tight,XQC) NoSymm scrf=(smd,solvent=water)

mol_028_Z scan pt4 (R0+0.20A) rigid O-N displacement then constrained opt  [oxime: C8=N9-O10]

1 1
C       -1.52708900      1.99729100      0.94894800
C       -1.39462500      0.60092700      0.40529400
C       -2.53776700     -0.18717200      0.26343200
C       -2.46259100     -1.49428400     -0.19808400
C       -1.23117200     -2.06785100     -0.49560700
C       -0.06951900     -1.32198900     -0.35098500
C       -0.16665700      0.01801900      0.06286300
C        1.13948100      0.69613500      0.15380500
N        1.52551100      1.78217300     -0.40066000
O        0.21995581      2.43463705     -1.30351478
C        2.23428900     -0.01567000      0.90307200
C        2.19045600     -1.53759800      0.63326100
C        1.30687100     -1.88971600     -0.57000500
H       -1.83109300      2.69160400      0.16079500
H       -0.59630900      2.36726100      1.38263000
H       -2.29564100      2.02269200      1.72398800
H       -3.50033800      0.23543900      0.53169000
H       -3.36976800     -2.07898000     -0.30344400
H       -1.16859100     -3.09961900     -0.82368400
H        0.40367081      2.26833905     -2.24753778
H        0.24374781      3.39962505     -1.16962478
H        3.19707900      0.41598000      0.62881800
H        2.06635800      0.19118500      1.96374200
H        1.79860000     -2.05165800      1.51347100
H        3.20656000     -1.89728000      0.46774200
H        1.25189000     -2.97150600     -0.69889300
H        1.74409400     -1.47357600     -1.48508100

B 9 10 F

--Link1--
%chk=mol_028_Z_scan_pt4.chk
%nprocshared=10
%mem=16GB
#p wB97XD/6-311+G(d,p) Geom=Check Guess=Read Stable=Opt Pop=NBO7Read Density=Current scrf=(smd,solvent=water)

mol_028_Z SP+NBO7/CMO after constrained opt at R0+0.20A  [oxime: C8=N9-O10]

1 1

$NBO CMO PRINT=2 E2PERT=0.05 BNDIDX $END

--Link1--
%chk=mol_028_Z_scan_pt5.chk
%nprocshared=10
%mem=16GB
#p wB97XD/6-311+G(d,p) opt=(ModRedundant) SCF=(Tight,XQC) NoSymm scrf=(smd,solvent=water)

mol_028_Z scan pt5 (R0+0.25A) rigid O-N displacement then constrained opt  [oxime: C8=N9-O10]

1 1
C       -1.52708900      1.99729100      0.94894800
C       -1.39462500      0.60092700      0.40529400
C       -2.53776700     -0.18717200      0.26343200
C       -2.46259100     -1.49428400     -0.19808400
C       -1.23117200     -2.06785100     -0.49560700
C       -0.06951900     -1.32198900     -0.35098500
C       -0.16665700      0.01801900      0.06286300
C        1.13948100      0.69613500      0.15380500
N        1.52551100      1.78217300     -0.40066000
O        0.18191952      2.45364607     -1.32981873
C        2.23428900     -0.01567000      0.90307200
C        2.19045600     -1.53759800      0.63326100
C        1.30687100     -1.88971600     -0.57000500
H       -1.83109300      2.69160400      0.16079500
H       -0.59630900      2.36726100      1.38263000
H       -2.29564100      2.02269200      1.72398800
H       -3.50033800      0.23543900      0.53169000
H       -3.36976800     -2.07898000     -0.30344400
H       -1.16859100     -3.09961900     -0.82368400
H        0.36563452      2.28734807     -2.27384173
H        0.20571152      3.41863407     -1.19592873
H        3.19707900      0.41598000      0.62881800
H        2.06635800      0.19118500      1.96374200
H        1.79860000     -2.05165800      1.51347100
H        3.20656000     -1.89728000      0.46774200
H        1.25189000     -2.97150600     -0.69889300
H        1.74409400     -1.47357600     -1.48508100

B 9 10 F

--Link1--
%chk=mol_028_Z_scan_pt5.chk
%nprocshared=10
%mem=16GB
#p wB97XD/6-311+G(d,p) Geom=Check Guess=Read Stable=Opt Pop=NBO7Read Density=Current scrf=(smd,solvent=water)

mol_028_Z SP+NBO7/CMO after constrained opt at R0+0.25A  [oxime: C8=N9-O10]

1 1

$NBO CMO PRINT=2 E2PERT=0.05 BNDIDX $END

--Link1--
%chk=mol_028_Z_scan_pt6.chk
%nprocshared=10
%mem=16GB
#p wB97XD/6-311+G(d,p) opt=(ModRedundant) SCF=(Tight,XQC) NoSymm scrf=(smd,solvent=water)

mol_028_Z scan pt6 (R0+0.30A) rigid O-N displacement then constrained opt  [oxime: C8=N9-O10]

1 1
C       -1.52708900      1.99729100      0.94894800
C       -1.39462500      0.60092700      0.40529400
C       -2.53776700     -0.18717200      0.26343200
C       -2.46259100     -1.49428400     -0.19808400
C       -1.23117200     -2.06785100     -0.49560700
C       -0.06951900     -1.32198900     -0.35098500
C       -0.16665700      0.01801900      0.06286300
C        1.13948100      0.69613500      0.15380500
N        1.52551100      1.78217300     -0.40066000
O        0.14388322      2.47265508     -1.35612267
C        2.23428900     -0.01567000      0.90307200
C        2.19045600     -1.53759800      0.63326100
C        1.30687100     -1.88971600     -0.57000500
H       -1.83109300      2.69160400      0.16079500
H       -0.59630900      2.36726100      1.38263000
H       -2.29564100      2.02269200      1.72398800
H       -3.50033800      0.23543900      0.53169000
H       -3.36976800     -2.07898000     -0.30344400
H       -1.16859100     -3.09961900     -0.82368400
H        0.32759822      2.30635708     -2.30014567
H        0.16767522      3.43764308     -1.22223267
H        3.19707900      0.41598000      0.62881800
H        2.06635800      0.19118500      1.96374200
H        1.79860000     -2.05165800      1.51347100
H        3.20656000     -1.89728000      0.46774200
H        1.25189000     -2.97150600     -0.69889300
H        1.74409400     -1.47357600     -1.48508100

B 9 10 F

--Link1--
%chk=mol_028_Z_scan_pt6.chk
%nprocshared=10
%mem=16GB
#p wB97XD/6-311+G(d,p) Geom=Check Guess=Read Stable=Opt Pop=NBO7Read Density=Current scrf=(smd,solvent=water)

mol_028_Z SP+NBO7/CMO after constrained opt at R0+0.30A  [oxime: C8=N9-O10]

1 1

$NBO CMO PRINT=2 E2PERT=0.05 BNDIDX $END


