%chk=mol_033_Z_scan_pt1.chk
%nprocshared=10
%mem=16GB
#p wB97XD/6-311+G(d,p) opt=(ModRedundant) SCF=(Tight,XQC) NoSymm scrf=(smd,solvent=water)

mol_033_Z scan pt1 (R0+0.05A) rigid O-N displacement then constrained opt  [oxime: C3=N2-O1]

1 1
O        2.19002908      2.47982583      0.53321930
N        2.89157400      1.18416900      0.01195700
C        2.03145400      0.27258000     -0.25096300
C        2.69508800     -1.01613200     -0.64529200
C        2.20688400     -2.09112800      0.32687300
C        0.70130700     -2.27414300      0.19712000
C       -0.06428000     -0.97799300      0.07952800
C       -1.45554800     -1.02449200      0.15987400
C       -2.19913000      0.12458400     -0.03092700
Cl      -3.94316900      0.03763900      0.07004100
C       -1.59957200      1.34532000     -0.31529400
C       -0.22057800      1.40577100     -0.37046300
C        0.56035500      0.26005100     -0.15637800
H        2.83937108      3.19568383      0.41261230
H        2.02515708      2.39052483      1.49179230
H        2.38803500     -1.25686700     -1.66814400
H        3.77864800     -0.90681400     -0.61894500
H        2.47107300     -1.79900200      1.34805600
H        2.71880800     -3.03059800      0.11289700
H        0.30562600     -2.85077800      1.03604100
H        0.48427500     -2.85296400     -0.70836500
H       -1.94686500     -1.96996000      0.35864600
H       -2.19590900      2.23113400     -0.49142100
H        0.24409000      2.34997700     -0.61101800

B 2 1 F

--Link1--
%chk=mol_033_Z_scan_pt1.chk
%nprocshared=10
%mem=16GB
#p wB97XD/6-311+G(d,p) Geom=Check Guess=Read Stable=Opt Pop=NBO7Read Density=Current scrf=(smd,solvent=water)

mol_033_Z SP+NBO7/CMO after constrained opt at R0+0.05A  [oxime: C3=N2-O1]

1 1

$NBO CMO PRINT=2 E2PERT=0.05 BNDIDX $END

--Link1--
%chk=mol_033_Z_scan_pt2.chk
%nprocshared=10
%mem=16GB
#p wB97XD/6-311+G(d,p) opt=(ModRedundant) SCF=(Tight,XQC) NoSymm scrf=(smd,solvent=water)

mol_033_Z scan pt2 (R0+0.10A) rigid O-N displacement then constrained opt  [oxime: C3=N2-O1]

1 1
O        2.16758516      2.52127667      0.54989559
N        2.89157400      1.18416900      0.01195700
C        2.03145400      0.27258000     -0.25096300
C        2.69508800     -1.01613200     -0.64529200
C        2.20688400     -2.09112800      0.32687300
C        0.70130700     -2.27414300      0.19712000
C       -0.06428000     -0.97799300      0.07952800
C       -1.45554800     -1.02449200      0.15987400
C       -2.19913000      0.12458400     -0.03092700
Cl      -3.94316900      0.03763900      0.07004100
C       -1.59957200      1.34532000     -0.31529400
C       -0.22057800      1.40577100     -0.37046300
C        0.56035500      0.26005100     -0.15637800
H        2.81692716      3.23713467      0.42928859
H        2.00271316      2.43197567      1.50846859
H        2.38803500     -1.25686700     -1.66814400
H        3.77864800     -0.90681400     -0.61894500
H        2.47107300     -1.79900200      1.34805600
H        2.71880800     -3.03059800      0.11289700
H        0.30562600     -2.85077800      1.03604100
H        0.48427500     -2.85296400     -0.70836500
H       -1.94686500     -1.96996000      0.35864600
H       -2.19590900      2.23113400     -0.49142100
H        0.24409000      2.34997700     -0.61101800

B 2 1 F

--Link1--
%chk=mol_033_Z_scan_pt2.chk
%nprocshared=10
%mem=16GB
#p wB97XD/6-311+G(d,p) Geom=Check Guess=Read Stable=Opt Pop=NBO7Read Density=Current scrf=(smd,solvent=water)

mol_033_Z SP+NBO7/CMO after constrained opt at R0+0.10A  [oxime: C3=N2-O1]

1 1

$NBO CMO PRINT=2 E2PERT=0.05 BNDIDX $END

--Link1--
%chk=mol_033_Z_scan_pt3.chk
%nprocshared=10
%mem=16GB
#p wB97XD/6-311+G(d,p) opt=(ModRedundant) SCF=(Tight,XQC) NoSymm scrf=(smd,solvent=water)

mol_033_Z scan pt3 (R0+0.15A) rigid O-N displacement then constrained opt  [oxime: C3=N2-O1]

1 1
O        2.14514123      2.56272750      0.56657189
N        2.89157400      1.18416900      0.01195700
C        2.03145400      0.27258000     -0.25096300
C        2.69508800     -1.01613200     -0.64529200
C        2.20688400     -2.09112800      0.32687300
C        0.70130700     -2.27414300      0.19712000
C       -0.06428000     -0.97799300      0.07952800
C       -1.45554800     -1.02449200      0.15987400
C       -2.19913000      0.12458400     -0.03092700
Cl      -3.94316900      0.03763900      0.07004100
C       -1.59957200      1.34532000     -0.31529400
C       -0.22057800      1.40577100     -0.37046300
C        0.56035500      0.26005100     -0.15637800
H        2.79448323      3.27858550      0.44596489
H        1.98026923      2.47342650      1.52514489
H        2.38803500     -1.25686700     -1.66814400
H        3.77864800     -0.90681400     -0.61894500
H        2.47107300     -1.79900200      1.34805600
H        2.71880800     -3.03059800      0.11289700
H        0.30562600     -2.85077800      1.03604100
H        0.48427500     -2.85296400     -0.70836500
H       -1.94686500     -1.96996000      0.35864600
H       -2.19590900      2.23113400     -0.49142100
H        0.24409000      2.34997700     -0.61101800

B 2 1 F

--Link1--
%chk=mol_033_Z_scan_pt3.chk
%nprocshared=10
%mem=16GB
#p wB97XD/6-311+G(d,p) Geom=Check Guess=Read Stable=Opt Pop=NBO7Read Density=Current scrf=(smd,solvent=water)

mol_033_Z SP+NBO7/CMO after constrained opt at R0+0.15A  [oxime: C3=N2-O1]

1 1

$NBO CMO PRINT=2 E2PERT=0.05 BNDIDX $END

--Link1--
%chk=mol_033_Z_scan_pt4.chk
%nprocshared=10
%mem=16GB
#p wB97XD/6-311+G(d,p) opt=(ModRedundant) SCF=(Tight,XQC) NoSymm scrf=(smd,solvent=water)

mol_033_Z scan pt4 (R0+0.20A) rigid O-N displacement then constrained opt  [oxime: C3=N2-O1]

1 1
O        2.12269731      2.60417833      0.58324818
N        2.89157400      1.18416900      0.01195700
C        2.03145400      0.27258000     -0.25096300
C        2.69508800     -1.01613200     -0.64529200
C        2.20688400     -2.09112800      0.32687300
C        0.70130700     -2.27414300      0.19712000
C       -0.06428000     -0.97799300      0.07952800
C       -1.45554800     -1.02449200      0.15987400
C       -2.19913000      0.12458400     -0.03092700
Cl      -3.94316900      0.03763900      0.07004100
C       -1.59957200      1.34532000     -0.31529400
C       -0.22057800      1.40577100     -0.37046300
C        0.56035500      0.26005100     -0.15637800
H        2.77203931      3.32003633      0.46264118
H        1.95782531      2.51487733      1.54182118
H        2.38803500     -1.25686700     -1.66814400
H        3.77864800     -0.90681400     -0.61894500
H        2.47107300     -1.79900200      1.34805600
H        2.71880800     -3.03059800      0.11289700
H        0.30562600     -2.85077800      1.03604100
H        0.48427500     -2.85296400     -0.70836500
H       -1.94686500     -1.96996000      0.35864600
H       -2.19590900      2.23113400     -0.49142100
H        0.24409000      2.34997700     -0.61101800

B 2 1 F

--Link1--
%chk=mol_033_Z_scan_pt4.chk
%nprocshared=10
%mem=16GB
#p wB97XD/6-311+G(d,p) Geom=Check Guess=Read Stable=Opt Pop=NBO7Read Density=Current scrf=(smd,solvent=water)

mol_033_Z SP+NBO7/CMO after constrained opt at R0+0.20A  [oxime: C3=N2-O1]

1 1

$NBO CMO PRINT=2 E2PERT=0.05 BNDIDX $END

--Link1--
%chk=mol_033_Z_scan_pt5.chk
%nprocshared=10
%mem=16GB
#p wB97XD/6-311+G(d,p) opt=(ModRedundant) SCF=(Tight,XQC) NoSymm scrf=(smd,solvent=water)

mol_033_Z scan pt5 (R0+0.25A) rigid O-N displacement then constrained opt  [oxime: C3=N2-O1]

1 1
O        2.10025339      2.64562916      0.59992448
N        2.89157400      1.18416900      0.01195700
C        2.03145400      0.27258000     -0.25096300
C        2.69508800     -1.01613200     -0.64529200
C        2.20688400     -2.09112800      0.32687300
C        0.70130700     -2.27414300      0.19712000
C       -0.06428000     -0.97799300      0.07952800
C       -1.45554800     -1.02449200      0.15987400
C       -2.19913000      0.12458400     -0.03092700
Cl      -3.94316900      0.03763900      0.07004100
C       -1.59957200      1.34532000     -0.31529400
C       -0.22057800      1.40577100     -0.37046300
C        0.56035500      0.26005100     -0.15637800
H        2.74959539      3.36148716      0.47931748
H        1.93538139      2.55632816      1.55849748
H        2.38803500     -1.25686700     -1.66814400
H        3.77864800     -0.90681400     -0.61894500
H        2.47107300     -1.79900200      1.34805600
H        2.71880800     -3.03059800      0.11289700
H        0.30562600     -2.85077800      1.03604100
H        0.48427500     -2.85296400     -0.70836500
H       -1.94686500     -1.96996000      0.35864600
H       -2.19590900      2.23113400     -0.49142100
H        0.24409000      2.34997700     -0.61101800

B 2 1 F

--Link1--
%chk=mol_033_Z_scan_pt5.chk
%nprocshared=10
%mem=16GB
#p wB97XD/6-311+G(d,p) Geom=Check Guess=Read Stable=Opt Pop=NBO7Read Density=Current scrf=(smd,solvent=water)

mol_033_Z SP+NBO7/CMO after constrained opt at R0+0.25A  [oxime: C3=N2-O1]

1 1

$NBO CMO PRINT=2 E2PERT=0.05 BNDIDX $END

--Link1--
%chk=mol_033_Z_scan_pt6.chk
%nprocshared=10
%mem=16GB
#p wB97XD/6-311+G(d,p) opt=(ModRedundant) SCF=(Tight,XQC) NoSymm scrf=(smd,solvent=water)

mol_033_Z scan pt6 (R0+0.30A) rigid O-N displacement then constrained opt  [oxime: C3=N2-O1]

1 1
O        2.07780947      2.68708000      0.61660077
N        2.89157400      1.18416900      0.01195700
C        2.03145400      0.27258000     -0.25096300
C        2.69508800     -1.01613200     -0.64529200
C        2.20688400     -2.09112800      0.32687300
C        0.70130700     -2.27414300      0.19712000
C       -0.06428000     -0.97799300      0.07952800
C       -1.45554800     -1.02449200      0.15987400
C       -2.19913000      0.12458400     -0.03092700
Cl      -3.94316900      0.03763900      0.07004100
C       -1.59957200      1.34532000     -0.31529400
C       -0.22057800      1.40577100     -0.37046300
C        0.56035500      0.26005100     -0.15637800
H        2.72715147      3.40293800      0.49599377
H        1.91293747      2.59777900      1.57517377
H        2.38803500     -1.25686700     -1.66814400
H        3.77864800     -0.90681400     -0.61894500
H        2.47107300     -1.79900200      1.34805600
H        2.71880800     -3.03059800      0.11289700
H        0.30562600     -2.85077800      1.03604100
H        0.48427500     -2.85296400     -0.70836500
H       -1.94686500     -1.96996000      0.35864600
H       -2.19590900      2.23113400     -0.49142100
H        0.24409000      2.34997700     -0.61101800

B 2 1 F

--Link1--
%chk=mol_033_Z_scan_pt6.chk
%nprocshared=10
%mem=16GB
#p wB97XD/6-311+G(d,p) Geom=Check Guess=Read Stable=Opt Pop=NBO7Read Density=Current scrf=(smd,solvent=water)

mol_033_Z SP+NBO7/CMO after constrained opt at R0+0.30A  [oxime: C3=N2-O1]

1 1

$NBO CMO PRINT=2 E2PERT=0.05 BNDIDX $END


