%chk=mol_033_Z_opt.chk
%nprocshared=10
%mem=16GB
#p wB97XD/6-311+G(d,p) opt scrf=(smd,solvent=water)

mol_033_Z opt  [oxime: C3=N2-O1]

1 1
O       -0.60350000     -3.11050000      0.29080000
N       -1.72120000     -1.90740000     -0.09560000
C       -1.12360000     -0.79910000     -0.28570000
C       -2.19820000      0.25490000     -0.46280000
C       -1.94670000      1.35060000      0.56230000
C       -0.57180000      1.96290000      0.35200000
C        0.52990000      0.96680000      0.11110000
C        1.84880000      1.38200000      0.21560000
C        2.88510000      0.52530000     -0.12310000
Cl       4.52060000      1.07100000     -0.00640000
C        2.63320000     -0.76840000     -0.57410000
C        1.33330000     -1.20580000     -0.64630000
C        0.26840000     -0.36620000     -0.27780000
H       -1.16500000     -3.90360000      0.20480000
H       -0.40290000     -2.97890000      1.23870000
H       -2.10490000      0.64610000     -1.47630000
H       -3.18780000     -0.18310000     -0.37340000
H       -2.03970000      0.93730000      1.56740000
H       -2.71020000      2.11970000      0.46830000
H       -0.30780000      2.60340000      1.19230000
H       -0.60770000      2.62020000     -0.52020000
H        2.07050000      2.38730000      0.54500000
H        3.44990000     -1.40840000     -0.87000000
H        1.15170000     -2.19620000     -1.03650000


