%chk=mol_010_E_scan_pt1.chk
%nprocshared=8
%mem=16GB
#p wB97XD/6-311+G(d,p) opt=(ModRedundant) SCF=(Tight,XQC) NoSymm scrf=(smd,solvent=water)

mol_010_E scan pt1 (R0+0.05A) rigid O-N displacement then constrained opt  [oxime: C9=N10-O11]

1 1
C        3.39569400     -1.92589900     -0.00901900
O        3.32181500     -0.50409700      0.00003800
C        2.08822000      0.06983000      0.00162600
C        2.07930800      1.47695300      0.00314200
C        0.89417400      2.18572000      0.00342800
C       -0.31533500      1.49037900      0.00220200
C       -0.28994500      0.10105400      0.00170400
C        0.89757600     -0.63940400      0.00130000
C       -1.66779500     -0.38299700      0.00271000
N       -1.90812600     -1.64125800      0.01494200
O       -3.45892241     -1.80859402      0.01316814
C       -2.61242200      0.78246000     -0.01052200
C       -1.71539700      2.03434900      0.00168300
H        4.45667400     -2.16830200     -0.01194200
H        2.92440200     -2.33693400     -0.90652000
H        2.92674600     -2.34852200      0.88428500
H        3.03151400      1.99547300      0.00318000
H        0.90990700      3.26960300      0.00401500
H        0.87349100     -1.72072600     -0.00021600
H       -3.71708441     -2.19765802     -0.84421386
H       -3.66574141     -2.46879502      0.69994714
H       -3.27212900      0.72319700      0.85726900
H       -3.24361700      0.72430800     -0.89971800
H       -1.89351800      2.66300800     -0.87311900
H       -1.89848500      2.64737300      0.88669200

B 10 11 F

--Link1--
%chk=mol_010_E_scan_pt1.chk
%nprocshared=8
%mem=16GB
#p wB97XD/6-311+G(d,p) Geom=Check Guess=Read Stable=Opt Pop=NBO7Read Density=Current scrf=(smd,solvent=water)

mol_010_E SP+NBO7/CMO after constrained opt at R0+0.05A  [oxime: C9=N10-O11]

1 1

$NBO CMO PRINT=2 E2PERT=0.05 BNDIDX $END

--Link1--
%chk=mol_010_E_scan_pt2.chk
%nprocshared=8
%mem=16GB
#p wB97XD/6-311+G(d,p) opt=(ModRedundant) SCF=(Tight,XQC) NoSymm scrf=(smd,solvent=water)

mol_010_E scan pt2 (R0+0.10A) rigid O-N displacement then constrained opt  [oxime: C9=N10-O11]

1 1
C        3.39569400     -1.92589900     -0.00901900
O        3.32181500     -0.50409700      0.00003800
C        2.08822000      0.06983000      0.00162600
C        2.07930800      1.47695300      0.00314200
C        0.89417400      2.18572000      0.00342800
C       -0.31533500      1.49037900      0.00220200
C       -0.28994500      0.10105400      0.00170400
C        0.89757600     -0.63940400      0.00130000
C       -1.66779500     -0.38299700      0.00271000
N       -1.90812600     -1.64125800      0.01494200
O       -3.50863381     -1.81395805      0.01311128
C       -2.61242200      0.78246000     -0.01052200
C       -1.71539700      2.03434900      0.00168300
H        4.45667400     -2.16830200     -0.01194200
H        2.92440200     -2.33693400     -0.90652000
H        2.92674600     -2.34852200      0.88428500
H        3.03151400      1.99547300      0.00318000
H        0.90990700      3.26960300      0.00401500
H        0.87349100     -1.72072600     -0.00021600
H       -3.76679581     -2.20302205     -0.84427072
H       -3.71545281     -2.47415905      0.69989028
H       -3.27212900      0.72319700      0.85726900
H       -3.24361700      0.72430800     -0.89971800
H       -1.89351800      2.66300800     -0.87311900
H       -1.89848500      2.64737300      0.88669200

B 10 11 F

--Link1--
%chk=mol_010_E_scan_pt2.chk
%nprocshared=8
%mem=16GB
#p wB97XD/6-311+G(d,p) Geom=Check Guess=Read Stable=Opt Pop=NBO7Read Density=Current scrf=(smd,solvent=water)

mol_010_E SP+NBO7/CMO after constrained opt at R0+0.10A  [oxime: C9=N10-O11]

1 1

$NBO CMO PRINT=2 E2PERT=0.05 BNDIDX $END

--Link1--
%chk=mol_010_E_scan_pt3.chk
%nprocshared=8
%mem=16GB
#p wB97XD/6-311+G(d,p) opt=(ModRedundant) SCF=(Tight,XQC) NoSymm scrf=(smd,solvent=water)

mol_010_E scan pt3 (R0+0.15A) rigid O-N displacement then constrained opt  [oxime: C9=N10-O11]

1 1
C        3.39569400     -1.92589900     -0.00901900
O        3.32181500     -0.50409700      0.00003800
C        2.08822000      0.06983000      0.00162600
C        2.07930800      1.47695300      0.00314200
C        0.89417400      2.18572000      0.00342800
C       -0.31533500      1.49037900      0.00220200
C       -0.28994500      0.10105400      0.00170400
C        0.89757600     -0.63940400      0.00130000
C       -1.66779500     -0.38299700      0.00271000
N       -1.90812600     -1.64125800      0.01494200
O       -3.55834522     -1.81932207      0.01305441
C       -2.61242200      0.78246000     -0.01052200
C       -1.71539700      2.03434900      0.00168300
H        4.45667400     -2.16830200     -0.01194200
H        2.92440200     -2.33693400     -0.90652000
H        2.92674600     -2.34852200      0.88428500
H        3.03151400      1.99547300      0.00318000
H        0.90990700      3.26960300      0.00401500
H        0.87349100     -1.72072600     -0.00021600
H       -3.81650722     -2.20838607     -0.84432759
H       -3.76516422     -2.47952307      0.69983341
H       -3.27212900      0.72319700      0.85726900
H       -3.24361700      0.72430800     -0.89971800
H       -1.89351800      2.66300800     -0.87311900
H       -1.89848500      2.64737300      0.88669200

B 10 11 F

--Link1--
%chk=mol_010_E_scan_pt3.chk
%nprocshared=8
%mem=16GB
#p wB97XD/6-311+G(d,p) Geom=Check Guess=Read Stable=Opt Pop=NBO7Read Density=Current scrf=(smd,solvent=water)

mol_010_E SP+NBO7/CMO after constrained opt at R0+0.15A  [oxime: C9=N10-O11]

1 1

$NBO CMO PRINT=2 E2PERT=0.05 BNDIDX $END

--Link1--
%chk=mol_010_E_scan_pt4.chk
%nprocshared=8
%mem=16GB
#p wB97XD/6-311+G(d,p) opt=(ModRedundant) SCF=(Tight,XQC) NoSymm scrf=(smd,solvent=water)

mol_010_E scan pt4 (R0+0.20A) rigid O-N displacement then constrained opt  [oxime: C9=N10-O11]

1 1
C        3.39569400     -1.92589900     -0.00901900
O        3.32181500     -0.50409700      0.00003800
C        2.08822000      0.06983000      0.00162600
C        2.07930800      1.47695300      0.00314200
C        0.89417400      2.18572000      0.00342800
C       -0.31533500      1.49037900      0.00220200
C       -0.28994500      0.10105400      0.00170400
C        0.89757600     -0.63940400      0.00130000
C       -1.66779500     -0.38299700      0.00271000
N       -1.90812600     -1.64125800      0.01494200
O       -3.60805663     -1.82468610      0.01299755
C       -2.61242200      0.78246000     -0.01052200
C       -1.71539700      2.03434900      0.00168300
H        4.45667400     -2.16830200     -0.01194200
H        2.92440200     -2.33693400     -0.90652000
H        2.92674600     -2.34852200      0.88428500
H        3.03151400      1.99547300      0.00318000
H        0.90990700      3.26960300      0.00401500
H        0.87349100     -1.72072600     -0.00021600
H       -3.86621863     -2.21375010     -0.84438445
H       -3.81487563     -2.48488710      0.69977655
H       -3.27212900      0.72319700      0.85726900
H       -3.24361700      0.72430800     -0.89971800
H       -1.89351800      2.66300800     -0.87311900
H       -1.89848500      2.64737300      0.88669200

B 10 11 F

--Link1--
%chk=mol_010_E_scan_pt4.chk
%nprocshared=8
%mem=16GB
#p wB97XD/6-311+G(d,p) Geom=Check Guess=Read Stable=Opt Pop=NBO7Read Density=Current scrf=(smd,solvent=water)

mol_010_E SP+NBO7/CMO after constrained opt at R0+0.20A  [oxime: C9=N10-O11]

1 1

$NBO CMO PRINT=2 E2PERT=0.05 BNDIDX $END

--Link1--
%chk=mol_010_E_scan_pt5.chk
%nprocshared=8
%mem=16GB
#p wB97XD/6-311+G(d,p) opt=(ModRedundant) SCF=(Tight,XQC) NoSymm scrf=(smd,solvent=water)

mol_010_E scan pt5 (R0+0.25A) rigid O-N displacement then constrained opt  [oxime: C9=N10-O11]

1 1
C        3.39569400     -1.92589900     -0.00901900
O        3.32181500     -0.50409700      0.00003800
C        2.08822000      0.06983000      0.00162600
C        2.07930800      1.47695300      0.00314200
C        0.89417400      2.18572000      0.00342800
C       -0.31533500      1.49037900      0.00220200
C       -0.28994500      0.10105400      0.00170400
C        0.89757600     -0.63940400      0.00130000
C       -1.66779500     -0.38299700      0.00271000
N       -1.90812600     -1.64125800      0.01494200
O       -3.65776804     -1.83005012      0.01294069
C       -2.61242200      0.78246000     -0.01052200
C       -1.71539700      2.03434900      0.00168300
H        4.45667400     -2.16830200     -0.01194200
H        2.92440200     -2.33693400     -0.90652000
H        2.92674600     -2.34852200      0.88428500
H        3.03151400      1.99547300      0.00318000
H        0.90990700      3.26960300      0.00401500
H        0.87349100     -1.72072600     -0.00021600
H       -3.91593004     -2.21911412     -0.84444131
H       -3.86458704     -2.49025112      0.69971969
H       -3.27212900      0.72319700      0.85726900
H       -3.24361700      0.72430800     -0.89971800
H       -1.89351800      2.66300800     -0.87311900
H       -1.89848500      2.64737300      0.88669200

B 10 11 F

--Link1--
%chk=mol_010_E_scan_pt5.chk
%nprocshared=8
%mem=16GB
#p wB97XD/6-311+G(d,p) Geom=Check Guess=Read Stable=Opt Pop=NBO7Read Density=Current scrf=(smd,solvent=water)

mol_010_E SP+NBO7/CMO after constrained opt at R0+0.25A  [oxime: C9=N10-O11]

1 1

$NBO CMO PRINT=2 E2PERT=0.05 BNDIDX $END

--Link1--
%chk=mol_010_E_scan_pt6.chk
%nprocshared=8
%mem=16GB
#p wB97XD/6-311+G(d,p) opt=(ModRedundant) SCF=(Tight,XQC) NoSymm scrf=(smd,solvent=water)

mol_010_E scan pt6 (R0+0.30A) rigid O-N displacement then constrained opt  [oxime: C9=N10-O11]

1 1
C        3.39569400     -1.92589900     -0.00901900
O        3.32181500     -0.50409700      0.00003800
C        2.08822000      0.06983000      0.00162600
C        2.07930800      1.47695300      0.00314200
C        0.89417400      2.18572000      0.00342800
C       -0.31533500      1.49037900      0.00220200
C       -0.28994500      0.10105400      0.00170400
C        0.89757600     -0.63940400      0.00130000
C       -1.66779500     -0.38299700      0.00271000
N       -1.90812600     -1.64125800      0.01494200
O       -3.70747944     -1.83541414      0.01288383
C       -2.61242200      0.78246000     -0.01052200
C       -1.71539700      2.03434900      0.00168300
H        4.45667400     -2.16830200     -0.01194200
H        2.92440200     -2.33693400     -0.90652000
H        2.92674600     -2.34852200      0.88428500
H        3.03151400      1.99547300      0.00318000
H        0.90990700      3.26960300      0.00401500
H        0.87349100     -1.72072600     -0.00021600
H       -3.96564144     -2.22447814     -0.84449817
H       -3.91429844     -2.49561514      0.69966283
H       -3.27212900      0.72319700      0.85726900
H       -3.24361700      0.72430800     -0.89971800
H       -1.89351800      2.66300800     -0.87311900
H       -1.89848500      2.64737300      0.88669200

B 10 11 F

--Link1--
%chk=mol_010_E_scan_pt6.chk
%nprocshared=8
%mem=16GB
#p wB97XD/6-311+G(d,p) Geom=Check Guess=Read Stable=Opt Pop=NBO7Read Density=Current scrf=(smd,solvent=water)

mol_010_E SP+NBO7/CMO after constrained opt at R0+0.30A  [oxime: C9=N10-O11]

1 1

$NBO CMO PRINT=2 E2PERT=0.05 BNDIDX $END


