%chk=mol_009_E.chk
%nprocshared=8
%mem=16GB
#p wB97XD/6-311+G(d,p) sp pop=nboread

mol_009_E  [oxime: C8=N9-O10]

1 1
C       -3.56680000      0.88130000      0.43750000
C       -2.27390000      0.25770000      0.02220000
C       -2.25640000     -0.86360000     -0.82490000
C       -1.08260000     -1.49180000     -1.21640000
C        0.12770000     -1.00110000     -0.75820000
C        0.11970000      0.11660000      0.08790000
C       -1.05900000      0.75140000      0.48130000
C        1.50200000      0.43250000      0.42770000
N        1.72400000      1.42650000      1.19760000
O        3.38110000      1.51480000      1.38740000
C        2.43120000     -0.54400000     -0.24490000
C        1.51560000     -1.49300000     -1.03390000
H       -3.98180000      0.36500000      1.30410000
H       -4.31050000      0.82090000     -0.35330000
H       -3.44130000      1.92500000      0.71280000
H       -3.19860000     -1.25200000     -1.18980000
H       -1.12180000     -2.35180000     -1.87110000
H       -1.04460000      1.61530000      1.13140000
H        3.45840000      1.48960000      2.36080000
H        3.55140000      2.43630000      1.11190000
H        3.02310000     -1.05010000      0.51470000
H        3.12790000      0.00500000     -0.87480000
H        1.73720000     -1.46620000     -2.09810000
H        1.63830000     -2.52410000     -0.71190000
$NBO E2PERT BNDIDX NBOSUM $END


