%chk=mol_012_E_scan_pt1.chk
%nprocshared=8
%mem=16GB
#p wB97XD/6-311+G(d,p) opt=(ModRedundant) SCF=(Tight,XQC) NoSymm scrf=(smd,solvent=water)

mol_012_E scan pt1 (R0+0.05A) rigid O-N displacement then constrained opt  [oxime: C10=N11-O12]

1 1
O        2.97461900     -1.97644400     -0.01360100
N        3.04095200     -0.75944100     -0.00430500
O        4.09307000     -0.14483500      0.00215500
C        1.79124200      0.00374300     -0.00070200
C        1.85885500      1.39837600      0.00489200
C        0.68953400      2.13745700      0.00678000
C       -0.53199600      1.46966700      0.00351400
C       -0.56222800      0.07418800     -0.00086200
C        0.59666800     -0.69143000     -0.00388600
C       -1.95910000     -0.36228400      0.00453000
N       -2.23859600     -1.61000300      0.02511200
O       -3.78205638     -1.73879770      0.03691915
C       -2.85683500      0.83803600     -0.01408100
C       -1.91226400      2.05466900      0.00617300
H        2.82246200      1.88983800      0.00685700
H        0.73016300      3.21959800      0.01071700
H        0.57486400     -1.77270600     -0.00880900
H       -4.09608538     -1.85936870     -0.88079985
H       -3.98440338     -2.56336770      0.51727015
H       -3.48118000      0.80649300     -0.90976700
H       -3.52556300      0.80305100      0.84808300
H       -2.05910500      2.69809300     -0.86328600
H       -2.06421400      2.66898700      0.89596200

B 11 12 F

--Link1--
%chk=mol_012_E_scan_pt1.chk
%nprocshared=8
%mem=16GB
#p wB97XD/6-311+G(d,p) Geom=Check Guess=Read Stable=Opt Pop=NBO7Read Density=Current scrf=(smd,solvent=water)

mol_012_E SP+NBO7/CMO after constrained opt at R0+0.05A  [oxime: C10=N11-O12]

1 1

$NBO CMO PRINT=2 E2PERT=0.05 BNDIDX $END

--Link1--
%chk=mol_012_E_scan_pt2.chk
%nprocshared=8
%mem=16GB
#p wB97XD/6-311+G(d,p) opt=(ModRedundant) SCF=(Tight,XQC) NoSymm scrf=(smd,solvent=water)

mol_012_E scan pt2 (R0+0.10A) rigid O-N displacement then constrained opt  [oxime: C10=N11-O12]

1 1
O        2.97461900     -1.97644400     -0.01360100
N        3.04095200     -0.75944100     -0.00430500
O        4.09307000     -0.14483500      0.00215500
C        1.79124200      0.00374300     -0.00070200
C        1.85885500      1.39837600      0.00489200
C        0.68953400      2.13745700      0.00678000
C       -0.53199600      1.46966700      0.00351400
C       -0.56222800      0.07418800     -0.00086200
C        0.59666800     -0.69143000     -0.00388600
C       -1.95910000     -0.36228400      0.00453000
N       -2.23859600     -1.61000300      0.02511200
O       -3.83188176     -1.74295540      0.03730031
C       -2.85683500      0.83803600     -0.01408100
C       -1.91226400      2.05466900      0.00617300
H        2.82246200      1.88983800      0.00685700
H        0.73016300      3.21959800      0.01071700
H        0.57486400     -1.77270600     -0.00880900
H       -4.14591076     -1.86352640     -0.88041869
H       -4.03422876     -2.56752540      0.51765131
H       -3.48118000      0.80649300     -0.90976700
H       -3.52556300      0.80305100      0.84808300
H       -2.05910500      2.69809300     -0.86328600
H       -2.06421400      2.66898700      0.89596200

B 11 12 F

--Link1--
%chk=mol_012_E_scan_pt2.chk
%nprocshared=8
%mem=16GB
#p wB97XD/6-311+G(d,p) Geom=Check Guess=Read Stable=Opt Pop=NBO7Read Density=Current scrf=(smd,solvent=water)

mol_012_E SP+NBO7/CMO after constrained opt at R0+0.10A  [oxime: C10=N11-O12]

1 1

$NBO CMO PRINT=2 E2PERT=0.05 BNDIDX $END

--Link1--
%chk=mol_012_E_scan_pt3.chk
%nprocshared=8
%mem=16GB
#p wB97XD/6-311+G(d,p) opt=(ModRedundant) SCF=(Tight,XQC) NoSymm scrf=(smd,solvent=water)

mol_012_E scan pt3 (R0+0.15A) rigid O-N displacement then constrained opt  [oxime: C10=N11-O12]

1 1
O        2.97461900     -1.97644400     -0.01360100
N        3.04095200     -0.75944100     -0.00430500
O        4.09307000     -0.14483500      0.00215500
C        1.79124200      0.00374300     -0.00070200
C        1.85885500      1.39837600      0.00489200
C        0.68953400      2.13745700      0.00678000
C       -0.53199600      1.46966700      0.00351400
C       -0.56222800      0.07418800     -0.00086200
C        0.59666800     -0.69143000     -0.00388600
C       -1.95910000     -0.36228400      0.00453000
N       -2.23859600     -1.61000300      0.02511200
O       -3.88170713     -1.74711310      0.03768146
C       -2.85683500      0.83803600     -0.01408100
C       -1.91226400      2.05466900      0.00617300
H        2.82246200      1.88983800      0.00685700
H        0.73016300      3.21959800      0.01071700
H        0.57486400     -1.77270600     -0.00880900
H       -4.19573613     -1.86768410     -0.88003754
H       -4.08405413     -2.57168310      0.51803246
H       -3.48118000      0.80649300     -0.90976700
H       -3.52556300      0.80305100      0.84808300
H       -2.05910500      2.69809300     -0.86328600
H       -2.06421400      2.66898700      0.89596200

B 11 12 F

--Link1--
%chk=mol_012_E_scan_pt3.chk
%nprocshared=8
%mem=16GB
#p wB97XD/6-311+G(d,p) Geom=Check Guess=Read Stable=Opt Pop=NBO7Read Density=Current scrf=(smd,solvent=water)

mol_012_E SP+NBO7/CMO after constrained opt at R0+0.15A  [oxime: C10=N11-O12]

1 1

$NBO CMO PRINT=2 E2PERT=0.05 BNDIDX $END

--Link1--
%chk=mol_012_E_scan_pt4.chk
%nprocshared=8
%mem=16GB
#p wB97XD/6-311+G(d,p) opt=(ModRedundant) SCF=(Tight,XQC) NoSymm scrf=(smd,solvent=water)

mol_012_E scan pt4 (R0+0.20A) rigid O-N displacement then constrained opt  [oxime: C10=N11-O12]

1 1
O        2.97461900     -1.97644400     -0.01360100
N        3.04095200     -0.75944100     -0.00430500
O        4.09307000     -0.14483500      0.00215500
C        1.79124200      0.00374300     -0.00070200
C        1.85885500      1.39837600      0.00489200
C        0.68953400      2.13745700      0.00678000
C       -0.53199600      1.46966700      0.00351400
C       -0.56222800      0.07418800     -0.00086200
C        0.59666800     -0.69143000     -0.00388600
C       -1.95910000     -0.36228400      0.00453000
N       -2.23859600     -1.61000300      0.02511200
O       -3.93153251     -1.75127080      0.03806262
C       -2.85683500      0.83803600     -0.01408100
C       -1.91226400      2.05466900      0.00617300
H        2.82246200      1.88983800      0.00685700
H        0.73016300      3.21959800      0.01071700
H        0.57486400     -1.77270600     -0.00880900
H       -4.24556151     -1.87184180     -0.87965638
H       -4.13387951     -2.57584080      0.51841362
H       -3.48118000      0.80649300     -0.90976700
H       -3.52556300      0.80305100      0.84808300
H       -2.05910500      2.69809300     -0.86328600
H       -2.06421400      2.66898700      0.89596200

B 11 12 F

--Link1--
%chk=mol_012_E_scan_pt4.chk
%nprocshared=8
%mem=16GB
#p wB97XD/6-311+G(d,p) Geom=Check Guess=Read Stable=Opt Pop=NBO7Read Density=Current scrf=(smd,solvent=water)

mol_012_E SP+NBO7/CMO after constrained opt at R0+0.20A  [oxime: C10=N11-O12]

1 1

$NBO CMO PRINT=2 E2PERT=0.05 BNDIDX $END

--Link1--
%chk=mol_012_E_scan_pt5.chk
%nprocshared=8
%mem=16GB
#p wB97XD/6-311+G(d,p) opt=(ModRedundant) SCF=(Tight,XQC) NoSymm scrf=(smd,solvent=water)

mol_012_E scan pt5 (R0+0.25A) rigid O-N displacement then constrained opt  [oxime: C10=N11-O12]

1 1
O        2.97461900     -1.97644400     -0.01360100
N        3.04095200     -0.75944100     -0.00430500
O        4.09307000     -0.14483500      0.00215500
C        1.79124200      0.00374300     -0.00070200
C        1.85885500      1.39837600      0.00489200
C        0.68953400      2.13745700      0.00678000
C       -0.53199600      1.46966700      0.00351400
C       -0.56222800      0.07418800     -0.00086200
C        0.59666800     -0.69143000     -0.00388600
C       -1.95910000     -0.36228400      0.00453000
N       -2.23859600     -1.61000300      0.02511200
O       -3.98135789     -1.75542850      0.03844377
C       -2.85683500      0.83803600     -0.01408100
C       -1.91226400      2.05466900      0.00617300
H        2.82246200      1.88983800      0.00685700
H        0.73016300      3.21959800      0.01071700
H        0.57486400     -1.77270600     -0.00880900
H       -4.29538689     -1.87599950     -0.87927523
H       -4.18370489     -2.57999850      0.51879477
H       -3.48118000      0.80649300     -0.90976700
H       -3.52556300      0.80305100      0.84808300
H       -2.05910500      2.69809300     -0.86328600
H       -2.06421400      2.66898700      0.89596200

B 11 12 F

--Link1--
%chk=mol_012_E_scan_pt5.chk
%nprocshared=8
%mem=16GB
#p wB97XD/6-311+G(d,p) Geom=Check Guess=Read Stable=Opt Pop=NBO7Read Density=Current scrf=(smd,solvent=water)

mol_012_E SP+NBO7/CMO after constrained opt at R0+0.25A  [oxime: C10=N11-O12]

1 1

$NBO CMO PRINT=2 E2PERT=0.05 BNDIDX $END

--Link1--
%chk=mol_012_E_scan_pt6.chk
%nprocshared=8
%mem=16GB
#p wB97XD/6-311+G(d,p) opt=(ModRedundant) SCF=(Tight,XQC) NoSymm scrf=(smd,solvent=water)

mol_012_E scan pt6 (R0+0.30A) rigid O-N displacement then constrained opt  [oxime: C10=N11-O12]

1 1
O        2.97461900     -1.97644400     -0.01360100
N        3.04095200     -0.75944100     -0.00430500
O        4.09307000     -0.14483500      0.00215500
C        1.79124200      0.00374300     -0.00070200
C        1.85885500      1.39837600      0.00489200
C        0.68953400      2.13745700      0.00678000
C       -0.53199600      1.46966700      0.00351400
C       -0.56222800      0.07418800     -0.00086200
C        0.59666800     -0.69143000     -0.00388600
C       -1.95910000     -0.36228400      0.00453000
N       -2.23859600     -1.61000300      0.02511200
O       -4.03118327     -1.75958620      0.03882492
C       -2.85683500      0.83803600     -0.01408100
C       -1.91226400      2.05466900      0.00617300
H        2.82246200      1.88983800      0.00685700
H        0.73016300      3.21959800      0.01071700
H        0.57486400     -1.77270600     -0.00880900
H       -4.34521227     -1.88015720     -0.87889408
H       -4.23353027     -2.58415620      0.51917592
H       -3.48118000      0.80649300     -0.90976700
H       -3.52556300      0.80305100      0.84808300
H       -2.05910500      2.69809300     -0.86328600
H       -2.06421400      2.66898700      0.89596200

B 11 12 F

--Link1--
%chk=mol_012_E_scan_pt6.chk
%nprocshared=8
%mem=16GB
#p wB97XD/6-311+G(d,p) Geom=Check Guess=Read Stable=Opt Pop=NBO7Read Density=Current scrf=(smd,solvent=water)

mol_012_E SP+NBO7/CMO after constrained opt at R0+0.30A  [oxime: C10=N11-O12]

1 1

$NBO CMO PRINT=2 E2PERT=0.05 BNDIDX $END


