%chk=mol_020_E_sp2.chk
%nprocshared=8
%mem=16GB
#p wB97XD/6-311+G(d,p) sp pop=nboread

mol_020_E_sp2  R(N-O)=1.7259A  [oxime: C11=N12-O13]

1 1
C       -4.23750800     -0.31237300     -0.04529600
C       -2.73722200     -0.32102800     -0.02637500
C       -2.04125700     -1.50835100      0.24003100
C       -0.66522700     -1.52336000      0.28092700
C        0.05386000     -0.33757200      0.05473100
C       -0.62069800      0.87015300     -0.19646100
C       -2.00926000      0.84922800     -0.23258700
C        0.15405600      2.14714400     -0.38034100
C        1.36858400      2.14775700      0.54395300
C        2.28520200      0.97343100      0.22324600
C        1.52467800     -0.31635500      0.02087300
N        2.01132100     -1.45554300     -0.27730000
O        3.72903500     -1.31469000     -0.18536300
H       -4.63008800      0.60321400     -0.48841900
H       -4.62525200     -1.16513400     -0.60655200
H       -4.62644300     -0.38808500      0.97459300
H       -2.59349300     -2.42259300      0.42571000
H       -0.14037300     -2.44342200      0.50736100
H       -2.53978200      1.77768500     -0.41780300
H        0.47613300      2.24385400     -1.42471400
H       -0.48946200      3.00252000     -0.17046400
H        1.93831000      3.07233400      0.43656600
H        1.03585800      2.08931000      1.58394000
H        3.03044900      0.81305200      1.00498500
H        2.83764800      1.15781000     -0.70491400
H        3.96073500     -1.99887600      0.46104000
H        4.00298500     -1.64739800     -1.05353200

$NBO E2PERT BNDIDX NBOSUM $END


