%chk=mol_020_E_sp4.chk
%nprocshared=8
%mem=16GB
#p wB97XD/6-311+G(d,p) sp pop=nbo7read

mol_020_E_sp4  R(N-O)=1.9259A  [oxime: C11=N12-O13]

1 1
C       -4.23347600     -0.29353800     -0.07880300
C       -2.73414900     -0.32661400     -0.03772500
C       -2.05706300     -1.49301000      0.33174500
C       -0.67764400     -1.51902400      0.39695500
C        0.03769500     -0.35535800      0.09295300
C       -0.60979000      0.83761900     -0.27857800
C       -1.99343700      0.82633600     -0.32355600
C        0.21384700      2.07680600     -0.50309000
C        1.29959100      2.15439400      0.57783700
C        2.25767500      0.96539300      0.49035800
C        1.52550300     -0.29303200      0.09486700
N        1.91764800     -1.35459400     -0.42963200
O        3.83849800     -1.32370600     -0.29329900
H       -4.59634900      0.42217600     -0.81794700
H       -4.64689400     -1.27605900     -0.31020200
H       -4.62569800      0.01004800      0.89703000
H       -2.62057200     -2.38582600      0.57642100
H       -0.15665600     -2.41837900      0.70002800
H       -2.51690900      1.74205300     -0.57962700
H        0.67368700      2.05770100     -1.49864000
H       -0.42412800      2.96034100     -0.46660000
H        1.88101700      3.07144200      0.47000100
H        0.82419400      2.18341000      1.56119100
H        2.75712900      0.76537800      1.44222700
H        3.03888500      1.12535000     -0.25557200
H        4.02061500     -2.09984500      0.25242900
H        4.08765000     -1.56581100     -1.19468700

$NBO E2PERT BNDIDX NBOSUM CMO $END


