%chk=mol_020_E_sp3.chk
%nprocshared=8
%mem=16GB
#p wB97XD/6-311+G(d,p) sp pop=nboread

mol_020_E_sp3  R(N-O)=1.8259A  [oxime: C11=N12-O13]

1 1
C       -4.23894400     -0.30803100     -0.05567300
C       -2.73880000     -0.32609100     -0.03186500
C       -2.04871800     -1.50477500      0.27664300
C       -0.67111100     -1.52260900      0.32721200
C        0.04444900     -0.34428700      0.06814300
C       -0.62065700      0.85820500     -0.23018700
C       -2.00729300      0.83888100     -0.26997500
C        0.17183300      2.12206400     -0.42836900
C        1.33541000      2.14831600      0.56354700
C        2.27571700      0.97162300      0.32543600
C        1.52250500     -0.30835200      0.04217600
N        1.97639800     -1.41825500     -0.34974000
O        3.79429000     -1.30937300     -0.21771000
H       -4.62109800      0.52660600     -0.64447500
H       -4.63770700     -1.23724600     -0.46641800
H       -4.62717800     -0.20501300      0.96242700
H       -2.60410700     -2.41138400      0.48779200
H       -0.14658000     -2.43353000      0.58789600
H       -2.53625800      1.76230200     -0.48314400
H        0.55162500      2.17580300     -1.45610000
H       -0.47341500      2.98968200     -0.28578700
H        1.90764500      3.07220300      0.46365700
H        0.94348100      2.11632400      1.58349900
H        2.93364500      0.78796600      1.17811700
H        2.92082300      1.15199000     -0.53962600
H        3.99309200     -2.04318500      0.38122500
H        4.06058800     -1.59941400     -1.10174100

$NBO E2PERT BNDIDX NBOSUM $END


