%chk=mol_024_Z.chk
%nprocshared=8
%mem=16GB
#p wB97XD/6-311+G(d,p) sp pop=nboread

mol_024_Z  [oxime: C8=N9-O10]

1 1
C        3.68220000     -0.19210000      0.37450000
C        2.24120000     -0.47110000      0.09190000
C        1.82040000     -1.71510000     -0.38750000
C        0.48420000     -1.99370000     -0.61600000
C       -0.49580000     -1.03840000     -0.38660000
C       -0.08570000      0.24220000      0.03540000
C        1.27210000      0.50140000      0.28620000
C       -1.13930000      1.22760000      0.21380000
N       -1.20110000      2.48920000      0.05760000
O        0.26940000      3.08610000     -0.45700000
C       -2.55740000      0.79050000      0.61570000
C       -2.73210000     -0.71950000      0.61310000
C       -1.95120000     -1.35160000     -0.52830000
H        4.18550000      0.18570000     -0.51710000
H        3.80430000      0.55360000      1.15780000
H        4.20610000     -1.09500000      0.67960000
H        2.55560000     -2.48930000     -0.56670000
H        0.19420000     -2.97730000     -0.96020000
H        1.58360000      1.44610000      0.71100000
H       -0.01320000      3.97080000     -0.75180000
H        0.50730000      2.54010000     -1.23590000
H       -2.77350000      1.21830000      1.59560000
H       -3.23630000      1.27540000     -0.08490000
H       -2.39260000     -1.13550000      1.56150000
H       -3.79220000     -0.94650000      0.52370000
H       -2.32880000     -0.97430000     -1.48290000
H       -2.10660000     -2.42770000     -0.54250000
$NBO E2PERT BNDIDX NBOSUM $END


