%chk=mol_001_Z_scan_pt1.chk
%nprocshared=8
%mem=16GB
#p wB97XD/6-311+G(d,p) opt=(ModRedundant) SCF=(Tight,XQC) NoSymm scrf=(smd,solvent=water)

mol_001_Z scan pt1 (R0+0.05A) rigid O-N displacement then constrained opt  [oxime: C3=N2-O1]

1 1
O       -2.39790967     -1.66337469      0.11729863
N       -2.50329400     -0.10900600      0.01096800
C       -1.32306000      0.38137400     -0.06542700
C       -1.23572000      1.88361100     -0.19339400
C        0.22842500      2.21872900      0.13155100
C        0.92962300      0.89435000      0.05111200
C        2.29728800      0.65326800      0.08241300
C        2.74858100     -0.65794000      0.01368400
C        1.84992000     -1.72447900     -0.08294400
C        0.48408600     -1.49754100     -0.10890200
C        0.02871100     -0.17468600     -0.04322600
H       -2.53901567     -1.91203369      1.05023563
H       -3.14644567     -2.02251169     -0.39283637
H       -1.96003400      2.38697100      0.44518900
H       -1.46804100      2.13347900     -1.23223900
H        0.32129100      2.62821800      1.14087000
H        0.64983900      2.94828800     -0.56104400
H        2.99841500      1.47682100      0.15616400
H        3.81382400     -0.85967200      0.03282200
H        2.22502900     -2.73936800     -0.14037700
H       -0.20190900     -2.32796300     -0.18911100

B 2 1 F

--Link1--
%chk=mol_001_Z_scan_pt1.chk
%nprocshared=8
%mem=16GB
#p wB97XD/6-311+G(d,p) Geom=Check Guess=Read Stable=Opt Pop=NBO7Read Density=Current scrf=(smd,solvent=water)

mol_001_Z SP+NBO7/CMO after constrained opt at R0+0.05A  [oxime: C3=N2-O1]

1 1

$NBO CMO PRINT=2 E2PERT=0.05 BNDIDX $END

--Link1--
%chk=mol_001_Z_scan_pt2.chk
%nprocshared=8
%mem=16GB
#p wB97XD/6-311+G(d,p) opt=(ModRedundant) SCF=(Tight,XQC) NoSymm scrf=(smd,solvent=water)

mol_001_Z scan pt2 (R0+0.10A) rigid O-N displacement then constrained opt  [oxime: C3=N2-O1]

1 1
O       -2.39453535     -1.71314439      0.12070325
N       -2.50329400     -0.10900600      0.01096800
C       -1.32306000      0.38137400     -0.06542700
C       -1.23572000      1.88361100     -0.19339400
C        0.22842500      2.21872900      0.13155100
C        0.92962300      0.89435000      0.05111200
C        2.29728800      0.65326800      0.08241300
C        2.74858100     -0.65794000      0.01368400
C        1.84992000     -1.72447900     -0.08294400
C        0.48408600     -1.49754100     -0.10890200
C        0.02871100     -0.17468600     -0.04322600
H       -2.53564135     -1.96180339      1.05364025
H       -3.14307135     -2.07228139     -0.38943175
H       -1.96003400      2.38697100      0.44518900
H       -1.46804100      2.13347900     -1.23223900
H        0.32129100      2.62821800      1.14087000
H        0.64983900      2.94828800     -0.56104400
H        2.99841500      1.47682100      0.15616400
H        3.81382400     -0.85967200      0.03282200
H        2.22502900     -2.73936800     -0.14037700
H       -0.20190900     -2.32796300     -0.18911100

B 2 1 F

--Link1--
%chk=mol_001_Z_scan_pt2.chk
%nprocshared=8
%mem=16GB
#p wB97XD/6-311+G(d,p) Geom=Check Guess=Read Stable=Opt Pop=NBO7Read Density=Current scrf=(smd,solvent=water)

mol_001_Z SP+NBO7/CMO after constrained opt at R0+0.10A  [oxime: C3=N2-O1]

1 1

$NBO CMO PRINT=2 E2PERT=0.05 BNDIDX $END

--Link1--
%chk=mol_001_Z_scan_pt3.chk
%nprocshared=8
%mem=16GB
#p wB97XD/6-311+G(d,p) opt=(ModRedundant) SCF=(Tight,XQC) NoSymm scrf=(smd,solvent=water)

mol_001_Z scan pt3 (R0+0.15A) rigid O-N displacement then constrained opt  [oxime: C3=N2-O1]

1 1
O       -2.39116102     -1.76291408      0.12410788
N       -2.50329400     -0.10900600      0.01096800
C       -1.32306000      0.38137400     -0.06542700
C       -1.23572000      1.88361100     -0.19339400
C        0.22842500      2.21872900      0.13155100
C        0.92962300      0.89435000      0.05111200
C        2.29728800      0.65326800      0.08241300
C        2.74858100     -0.65794000      0.01368400
C        1.84992000     -1.72447900     -0.08294400
C        0.48408600     -1.49754100     -0.10890200
C        0.02871100     -0.17468600     -0.04322600
H       -2.53226702     -2.01157308      1.05704488
H       -3.13969702     -2.12205108     -0.38602712
H       -1.96003400      2.38697100      0.44518900
H       -1.46804100      2.13347900     -1.23223900
H        0.32129100      2.62821800      1.14087000
H        0.64983900      2.94828800     -0.56104400
H        2.99841500      1.47682100      0.15616400
H        3.81382400     -0.85967200      0.03282200
H        2.22502900     -2.73936800     -0.14037700
H       -0.20190900     -2.32796300     -0.18911100

B 2 1 F

--Link1--
%chk=mol_001_Z_scan_pt3.chk
%nprocshared=8
%mem=16GB
#p wB97XD/6-311+G(d,p) Geom=Check Guess=Read Stable=Opt Pop=NBO7Read Density=Current scrf=(smd,solvent=water)

mol_001_Z SP+NBO7/CMO after constrained opt at R0+0.15A  [oxime: C3=N2-O1]

1 1

$NBO CMO PRINT=2 E2PERT=0.05 BNDIDX $END

--Link1--
%chk=mol_001_Z_scan_pt4.chk
%nprocshared=8
%mem=16GB
#p wB97XD/6-311+G(d,p) opt=(ModRedundant) SCF=(Tight,XQC) NoSymm scrf=(smd,solvent=water)

mol_001_Z scan pt4 (R0+0.20A) rigid O-N displacement then constrained opt  [oxime: C3=N2-O1]

1 1
O       -2.38778670     -1.81268378      0.12751250
N       -2.50329400     -0.10900600      0.01096800
C       -1.32306000      0.38137400     -0.06542700
C       -1.23572000      1.88361100     -0.19339400
C        0.22842500      2.21872900      0.13155100
C        0.92962300      0.89435000      0.05111200
C        2.29728800      0.65326800      0.08241300
C        2.74858100     -0.65794000      0.01368400
C        1.84992000     -1.72447900     -0.08294400
C        0.48408600     -1.49754100     -0.10890200
C        0.02871100     -0.17468600     -0.04322600
H       -2.52889270     -2.06134278      1.06044950
H       -3.13632270     -2.17182078     -0.38262250
H       -1.96003400      2.38697100      0.44518900
H       -1.46804100      2.13347900     -1.23223900
H        0.32129100      2.62821800      1.14087000
H        0.64983900      2.94828800     -0.56104400
H        2.99841500      1.47682100      0.15616400
H        3.81382400     -0.85967200      0.03282200
H        2.22502900     -2.73936800     -0.14037700
H       -0.20190900     -2.32796300     -0.18911100

B 2 1 F

--Link1--
%chk=mol_001_Z_scan_pt4.chk
%nprocshared=8
%mem=16GB
#p wB97XD/6-311+G(d,p) Geom=Check Guess=Read Stable=Opt Pop=NBO7Read Density=Current scrf=(smd,solvent=water)

mol_001_Z SP+NBO7/CMO after constrained opt at R0+0.20A  [oxime: C3=N2-O1]

1 1

$NBO CMO PRINT=2 E2PERT=0.05 BNDIDX $END

--Link1--
%chk=mol_001_Z_scan_pt5.chk
%nprocshared=8
%mem=16GB
#p wB97XD/6-311+G(d,p) opt=(ModRedundant) SCF=(Tight,XQC) NoSymm scrf=(smd,solvent=water)

mol_001_Z scan pt5 (R0+0.25A) rigid O-N displacement then constrained opt  [oxime: C3=N2-O1]

1 1
O       -2.38441237     -1.86245347      0.13091713
N       -2.50329400     -0.10900600      0.01096800
C       -1.32306000      0.38137400     -0.06542700
C       -1.23572000      1.88361100     -0.19339400
C        0.22842500      2.21872900      0.13155100
C        0.92962300      0.89435000      0.05111200
C        2.29728800      0.65326800      0.08241300
C        2.74858100     -0.65794000      0.01368400
C        1.84992000     -1.72447900     -0.08294400
C        0.48408600     -1.49754100     -0.10890200
C        0.02871100     -0.17468600     -0.04322600
H       -2.52551837     -2.11111247      1.06385413
H       -3.13294837     -2.22159047     -0.37921787
H       -1.96003400      2.38697100      0.44518900
H       -1.46804100      2.13347900     -1.23223900
H        0.32129100      2.62821800      1.14087000
H        0.64983900      2.94828800     -0.56104400
H        2.99841500      1.47682100      0.15616400
H        3.81382400     -0.85967200      0.03282200
H        2.22502900     -2.73936800     -0.14037700
H       -0.20190900     -2.32796300     -0.18911100

B 2 1 F

--Link1--
%chk=mol_001_Z_scan_pt5.chk
%nprocshared=8
%mem=16GB
#p wB97XD/6-311+G(d,p) Geom=Check Guess=Read Stable=Opt Pop=NBO7Read Density=Current scrf=(smd,solvent=water)

mol_001_Z SP+NBO7/CMO after constrained opt at R0+0.25A  [oxime: C3=N2-O1]

1 1

$NBO CMO PRINT=2 E2PERT=0.05 BNDIDX $END

--Link1--
%chk=mol_001_Z_scan_pt6.chk
%nprocshared=8
%mem=16GB
#p wB97XD/6-311+G(d,p) opt=(ModRedundant) SCF=(Tight,XQC) NoSymm scrf=(smd,solvent=water)

mol_001_Z scan pt6 (R0+0.30A) rigid O-N displacement then constrained opt  [oxime: C3=N2-O1]

1 1
O       -2.38103805     -1.91222316      0.13432175
N       -2.50329400     -0.10900600      0.01096800
C       -1.32306000      0.38137400     -0.06542700
C       -1.23572000      1.88361100     -0.19339400
C        0.22842500      2.21872900      0.13155100
C        0.92962300      0.89435000      0.05111200
C        2.29728800      0.65326800      0.08241300
C        2.74858100     -0.65794000      0.01368400
C        1.84992000     -1.72447900     -0.08294400
C        0.48408600     -1.49754100     -0.10890200
C        0.02871100     -0.17468600     -0.04322600
H       -2.52214405     -2.16088216      1.06725875
H       -3.12957405     -2.27136016     -0.37581325
H       -1.96003400      2.38697100      0.44518900
H       -1.46804100      2.13347900     -1.23223900
H        0.32129100      2.62821800      1.14087000
H        0.64983900      2.94828800     -0.56104400
H        2.99841500      1.47682100      0.15616400
H        3.81382400     -0.85967200      0.03282200
H        2.22502900     -2.73936800     -0.14037700
H       -0.20190900     -2.32796300     -0.18911100

B 2 1 F

--Link1--
%chk=mol_001_Z_scan_pt6.chk
%nprocshared=8
%mem=16GB
#p wB97XD/6-311+G(d,p) Geom=Check Guess=Read Stable=Opt Pop=NBO7Read Density=Current scrf=(smd,solvent=water)

mol_001_Z SP+NBO7/CMO after constrained opt at R0+0.30A  [oxime: C3=N2-O1]

1 1

$NBO CMO PRINT=2 E2PERT=0.05 BNDIDX $END


