%chk=mol_001_Z_opt.chk
%nprocshared=8
%mem=16GB
#p wB97XD/6-311+G(d,p) opt scrf=(smd,solvent=water)

mol_001_Z opt  [oxime: C3=N2-O1]

1 1
O       -2.12210000     -2.29400000     -0.57370000
N       -2.45220000     -0.62300000     -0.51020000
C       -1.36590000      0.00300000     -0.30220000
C       -1.60720000      1.51390000     -0.23960000
C       -0.29120000      2.08690000      0.31720000
C        0.66600000      0.94500000      0.27030000
C        2.02320000      0.96040000      0.53550000
C        2.73870000     -0.22220000      0.44430000
C        2.12280000     -1.42220000      0.09060000
C        0.77110000     -1.45690000     -0.17510000
C        0.04050000     -0.26700000     -0.07910000
H       -2.47280000     -2.60930000      0.28130000
H       -2.74850000     -2.56490000     -1.27140000
H       -2.47890000      1.75940000      0.35740000
H       -1.80340000      1.86330000     -1.24980000
H       -0.42500000      2.43340000      1.34180000
H        0.05950000      2.94460000     -0.25260000
H        2.52130000      1.88050000      0.80820000
H        3.79910000     -0.21190000      0.64990000
H        2.70700000     -2.32740000      0.02050000
H        0.31790000     -2.39150000     -0.46340000


