21
mol_005_E_opt
O       -3.371800      0.928000      0.945000
N       -1.763700      1.351600      0.861400
C       -1.153800      0.356200      0.341600
C       -1.649900     -0.982000     -0.137400
C       -0.404100     -1.709000     -0.666700
C        0.725300     -0.750300     -0.440300
C        2.060800     -0.926200     -0.734400
C        2.939500      0.112300     -0.436600
Br       4.769900     -0.099400     -0.827600
C        2.506000      1.309800      0.144500
C        1.170900      1.487000      0.439500
C        0.283900      0.448700      0.143400
H       -3.551000      1.053500      1.897300
H       -3.786000      1.678400      0.476100
H       -2.127700     -1.498300      0.692800
H       -2.414000     -0.829300     -0.896600
H       -0.233600     -2.645500     -0.141800
H       -0.502300     -1.951500     -1.722000
H        2.428200     -1.837100     -1.182600
H        3.224100      2.086700      0.357100
H        0.849400      2.416100      0.887800
