21
mol_005_Z_opt
O       -2.487700      2.008400      0.111900
N       -2.540300      0.345400      0.539500
C       -1.372100     -0.136000      0.416900
C       -1.347300     -1.622000      0.790400
C        0.031500     -2.113700      0.308400
C        0.773800     -0.869400     -0.045700
C        2.099900     -0.757900     -0.410600
C        2.592800      0.504700     -0.715200
Br       4.397700      0.687700     -1.214000
C        1.792900      1.649900     -0.660300
C        0.471200      1.538900     -0.297700
C       -0.045400      0.274500      0.007000
H       -2.972100      2.007600     -0.735600
H       -3.088400      2.368000      0.791800
H       -1.448300     -1.700600      1.869600
H       -2.180200     -2.160000      0.350400
H        0.552600     -2.698100      1.062800
H       -0.070000     -2.756100     -0.565200
H        2.746500     -1.621100     -0.459900
H        2.215700      2.612900     -0.897400
H       -0.122500      2.436900     -0.247200
