24
mol_032_Z_opt
O       -0.675400     -3.086300      0.376100
N       -1.775900     -1.864900     -0.046800
C       -1.152400     -0.778800     -0.268200
C       -2.199300      0.299300     -0.471800
C       -1.920100      1.407800      0.532400
C       -0.528200      1.979000      0.313900
C        0.547500      0.951200      0.088700
C        1.877500      1.335400      0.180700
C        2.888400      0.445100     -0.146200
Br       4.684100      0.997800     -0.036200
C        2.602600     -0.850300     -0.571600
C        1.291200     -1.256000     -0.630400
C        0.251400     -0.381600     -0.273300
H       -1.259200     -3.866400      0.329200
H       -0.461700     -2.920600      1.315500
H       -2.092200      0.665800     -1.493100
H       -3.200000     -0.111400     -0.375800
H       -2.025900      1.016100      1.544900
H       -2.662700      2.195300      0.422600
H       -0.247500      2.624800      1.144900
H       -0.545500      2.623600     -0.568300
H        2.123200      2.341500      0.490200
H        3.400000     -1.517600     -0.858700
H        1.080200     -2.248700     -0.999100
