21
mol_001_Z_opt
O       -2.122100     -2.294000     -0.573700
N       -2.452200     -0.623000     -0.510200
C       -1.365900      0.003000     -0.302200
C       -1.607200      1.513900     -0.239600
C       -0.291200      2.086900      0.317200
C        0.666000      0.945000      0.270300
C        2.023200      0.960400      0.535500
C        2.738700     -0.222200      0.444300
C        2.122800     -1.422200      0.090600
C        0.771100     -1.456900     -0.175100
C        0.040500     -0.267000     -0.079100
H       -2.472800     -2.609300      0.281300
H       -2.748500     -2.564900     -1.271400
H       -2.478900      1.759400      0.357400
H       -1.803400      1.863300     -1.249800
H       -0.425000      2.433400      1.341800
H        0.059500      2.944600     -0.252600
H        2.521300      1.880500      0.808200
H        3.799100     -0.211900      0.649900
H        2.707000     -2.327400      0.020500
H        0.317900     -2.391500     -0.463400
