%chk=mol_013_E_scan_pt1.chk
%nprocshared=8
%mem=16GB
#p wB97XD/6-311+G(d,p) opt=(ModRedundant) SCF=(Tight,XQC) NoSymm scrf=(smd,solvent=water)

mol_013_E scan pt1 (R0+0.05A) rigid O-N displacement then constrained opt  [oxime: C8=N9-O10]

1 1
C       -0.45355600      2.61828300     -0.00099900
C       -1.03698000      1.23737300      0.00012500
C       -2.41546900      1.04988400     -0.00326500
C       -2.98307800     -0.22568400     -0.00332200
C       -2.19044100     -1.36524000     -0.00030500
C       -0.81136600     -1.20835300      0.00264400
C       -0.24695700      0.07288000      0.00324600
C        1.20741200     -0.07636200      0.00444800
N        1.98314100      0.94559800      0.01099000
O        3.45044178      0.39745882      0.00262395
C        1.57063600     -1.53421700     -0.00316400
C        0.23188600     -2.28789300      0.00496400
H        0.18145000      2.77518200     -0.87703500
H       -1.24716100      3.36680700     -0.00828300
H        0.17095100      2.78130200      0.88143100
H       -3.06286900      1.92007400     -0.00645200
H       -4.06325100     -0.32279400     -0.00636300
H       -2.63513000     -2.35374900     -0.00093300
H        3.92610878      0.84751382      0.72483695
H        3.86013478      0.68705282     -0.83377505
H        2.17225300     -1.75022900     -0.88819700
H        2.18850200     -1.75574200      0.86897100
H        0.13259600     -2.92098700      0.88908900
H        0.12675500     -2.93229200     -0.87011300

B 9 10 F

--Link1--
%chk=mol_013_E_scan_pt1.chk
%nprocshared=8
%mem=16GB
#p wB97XD/6-311+G(d,p) Geom=Check Guess=Read Stable=Opt Pop=NBO7Read Density=Current scrf=(smd,solvent=water)

mol_013_E SP+NBO7/CMO after constrained opt at R0+0.05A  [oxime: C8=N9-O10]

1 1

$NBO CMO PRINT=2 E2PERT=0.05 BNDIDX $END

--Link1--
%chk=mol_013_E_scan_pt2.chk
%nprocshared=8
%mem=16GB
#p wB97XD/6-311+G(d,p) opt=(ModRedundant) SCF=(Tight,XQC) NoSymm scrf=(smd,solvent=water)

mol_013_E scan pt2 (R0+0.10A) rigid O-N displacement then constrained opt  [oxime: C8=N9-O10]

1 1
C       -0.45355600      2.61828300     -0.00099900
C       -1.03698000      1.23737300      0.00012500
C       -2.41546900      1.04988400     -0.00326500
C       -2.98307800     -0.22568400     -0.00332200
C       -2.19044100     -1.36524000     -0.00030500
C       -0.81136600     -1.20835300      0.00264400
C       -0.24695700      0.07288000      0.00324600
C        1.20741200     -0.07636200      0.00444800
N        1.98314100      0.94559800      0.01099000
O        3.49727956      0.37996165      0.00235689
C        1.57063600     -1.53421700     -0.00316400
C        0.23188600     -2.28789300      0.00496400
H        0.18145000      2.77518200     -0.87703500
H       -1.24716100      3.36680700     -0.00828300
H        0.17095100      2.78130200      0.88143100
H       -3.06286900      1.92007400     -0.00645200
H       -4.06325100     -0.32279400     -0.00636300
H       -2.63513000     -2.35374900     -0.00093300
H        3.97294656      0.83001665      0.72456989
H        3.90697256      0.66955565     -0.83404211
H        2.17225300     -1.75022900     -0.88819700
H        2.18850200     -1.75574200      0.86897100
H        0.13259600     -2.92098700      0.88908900
H        0.12675500     -2.93229200     -0.87011300

B 9 10 F

--Link1--
%chk=mol_013_E_scan_pt2.chk
%nprocshared=8
%mem=16GB
#p wB97XD/6-311+G(d,p) Geom=Check Guess=Read Stable=Opt Pop=NBO7Read Density=Current scrf=(smd,solvent=water)

mol_013_E SP+NBO7/CMO after constrained opt at R0+0.10A  [oxime: C8=N9-O10]

1 1

$NBO CMO PRINT=2 E2PERT=0.05 BNDIDX $END

--Link1--
%chk=mol_013_E_scan_pt3.chk
%nprocshared=8
%mem=16GB
#p wB97XD/6-311+G(d,p) opt=(ModRedundant) SCF=(Tight,XQC) NoSymm scrf=(smd,solvent=water)

mol_013_E scan pt3 (R0+0.15A) rigid O-N displacement then constrained opt  [oxime: C8=N9-O10]

1 1
C       -0.45355600      2.61828300     -0.00099900
C       -1.03698000      1.23737300      0.00012500
C       -2.41546900      1.04988400     -0.00326500
C       -2.98307800     -0.22568400     -0.00332200
C       -2.19044100     -1.36524000     -0.00030500
C       -0.81136600     -1.20835300      0.00264400
C       -0.24695700      0.07288000      0.00324600
C        1.20741200     -0.07636200      0.00444800
N        1.98314100      0.94559800      0.01099000
O        3.54411734      0.36246447      0.00208984
C        1.57063600     -1.53421700     -0.00316400
C        0.23188600     -2.28789300      0.00496400
H        0.18145000      2.77518200     -0.87703500
H       -1.24716100      3.36680700     -0.00828300
H        0.17095100      2.78130200      0.88143100
H       -3.06286900      1.92007400     -0.00645200
H       -4.06325100     -0.32279400     -0.00636300
H       -2.63513000     -2.35374900     -0.00093300
H        4.01978434      0.81251947      0.72430284
H        3.95381034      0.65205847     -0.83430916
H        2.17225300     -1.75022900     -0.88819700
H        2.18850200     -1.75574200      0.86897100
H        0.13259600     -2.92098700      0.88908900
H        0.12675500     -2.93229200     -0.87011300

B 9 10 F

--Link1--
%chk=mol_013_E_scan_pt3.chk
%nprocshared=8
%mem=16GB
#p wB97XD/6-311+G(d,p) Geom=Check Guess=Read Stable=Opt Pop=NBO7Read Density=Current scrf=(smd,solvent=water)

mol_013_E SP+NBO7/CMO after constrained opt at R0+0.15A  [oxime: C8=N9-O10]

1 1

$NBO CMO PRINT=2 E2PERT=0.05 BNDIDX $END

--Link1--
%chk=mol_013_E_scan_pt4.chk
%nprocshared=8
%mem=16GB
#p wB97XD/6-311+G(d,p) opt=(ModRedundant) SCF=(Tight,XQC) NoSymm scrf=(smd,solvent=water)

mol_013_E scan pt4 (R0+0.20A) rigid O-N displacement then constrained opt  [oxime: C8=N9-O10]

1 1
C       -0.45355600      2.61828300     -0.00099900
C       -1.03698000      1.23737300      0.00012500
C       -2.41546900      1.04988400     -0.00326500
C       -2.98307800     -0.22568400     -0.00332200
C       -2.19044100     -1.36524000     -0.00030500
C       -0.81136600     -1.20835300      0.00264400
C       -0.24695700      0.07288000      0.00324600
C        1.20741200     -0.07636200      0.00444800
N        1.98314100      0.94559800      0.01099000
O        3.59095511      0.34496729      0.00182279
C        1.57063600     -1.53421700     -0.00316400
C        0.23188600     -2.28789300      0.00496400
H        0.18145000      2.77518200     -0.87703500
H       -1.24716100      3.36680700     -0.00828300
H        0.17095100      2.78130200      0.88143100
H       -3.06286900      1.92007400     -0.00645200
H       -4.06325100     -0.32279400     -0.00636300
H       -2.63513000     -2.35374900     -0.00093300
H        4.06662211      0.79502229      0.72403579
H        4.00064811      0.63456129     -0.83457621
H        2.17225300     -1.75022900     -0.88819700
H        2.18850200     -1.75574200      0.86897100
H        0.13259600     -2.92098700      0.88908900
H        0.12675500     -2.93229200     -0.87011300

B 9 10 F

--Link1--
%chk=mol_013_E_scan_pt4.chk
%nprocshared=8
%mem=16GB
#p wB97XD/6-311+G(d,p) Geom=Check Guess=Read Stable=Opt Pop=NBO7Read Density=Current scrf=(smd,solvent=water)

mol_013_E SP+NBO7/CMO after constrained opt at R0+0.20A  [oxime: C8=N9-O10]

1 1

$NBO CMO PRINT=2 E2PERT=0.05 BNDIDX $END

--Link1--
%chk=mol_013_E_scan_pt5.chk
%nprocshared=8
%mem=16GB
#p wB97XD/6-311+G(d,p) opt=(ModRedundant) SCF=(Tight,XQC) NoSymm scrf=(smd,solvent=water)

mol_013_E scan pt5 (R0+0.25A) rigid O-N displacement then constrained opt  [oxime: C8=N9-O10]

1 1
C       -0.45355600      2.61828300     -0.00099900
C       -1.03698000      1.23737300      0.00012500
C       -2.41546900      1.04988400     -0.00326500
C       -2.98307800     -0.22568400     -0.00332200
C       -2.19044100     -1.36524000     -0.00030500
C       -0.81136600     -1.20835300      0.00264400
C       -0.24695700      0.07288000      0.00324600
C        1.20741200     -0.07636200      0.00444800
N        1.98314100      0.94559800      0.01099000
O        3.63779289      0.32747012      0.00155573
C        1.57063600     -1.53421700     -0.00316400
C        0.23188600     -2.28789300      0.00496400
H        0.18145000      2.77518200     -0.87703500
H       -1.24716100      3.36680700     -0.00828300
H        0.17095100      2.78130200      0.88143100
H       -3.06286900      1.92007400     -0.00645200
H       -4.06325100     -0.32279400     -0.00636300
H       -2.63513000     -2.35374900     -0.00093300
H        4.11345989      0.77752512      0.72376873
H        4.04748589      0.61706412     -0.83484327
H        2.17225300     -1.75022900     -0.88819700
H        2.18850200     -1.75574200      0.86897100
H        0.13259600     -2.92098700      0.88908900
H        0.12675500     -2.93229200     -0.87011300

B 9 10 F

--Link1--
%chk=mol_013_E_scan_pt5.chk
%nprocshared=8
%mem=16GB
#p wB97XD/6-311+G(d,p) Geom=Check Guess=Read Stable=Opt Pop=NBO7Read Density=Current scrf=(smd,solvent=water)

mol_013_E SP+NBO7/CMO after constrained opt at R0+0.25A  [oxime: C8=N9-O10]

1 1

$NBO CMO PRINT=2 E2PERT=0.05 BNDIDX $END

--Link1--
%chk=mol_013_E_scan_pt6.chk
%nprocshared=8
%mem=16GB
#p wB97XD/6-311+G(d,p) opt=(ModRedundant) SCF=(Tight,XQC) NoSymm scrf=(smd,solvent=water)

mol_013_E scan pt6 (R0+0.30A) rigid O-N displacement then constrained opt  [oxime: C8=N9-O10]

1 1
C       -0.45355600      2.61828300     -0.00099900
C       -1.03698000      1.23737300      0.00012500
C       -2.41546900      1.04988400     -0.00326500
C       -2.98307800     -0.22568400     -0.00332200
C       -2.19044100     -1.36524000     -0.00030500
C       -0.81136600     -1.20835300      0.00264400
C       -0.24695700      0.07288000      0.00324600
C        1.20741200     -0.07636200      0.00444800
N        1.98314100      0.94559800      0.01099000
O        3.68463067      0.30997294      0.00128868
C        1.57063600     -1.53421700     -0.00316400
C        0.23188600     -2.28789300      0.00496400
H        0.18145000      2.77518200     -0.87703500
H       -1.24716100      3.36680700     -0.00828300
H        0.17095100      2.78130200      0.88143100
H       -3.06286900      1.92007400     -0.00645200
H       -4.06325100     -0.32279400     -0.00636300
H       -2.63513000     -2.35374900     -0.00093300
H        4.16029767      0.76002794      0.72350168
H        4.09432367      0.59956694     -0.83511032
H        2.17225300     -1.75022900     -0.88819700
H        2.18850200     -1.75574200      0.86897100
H        0.13259600     -2.92098700      0.88908900
H        0.12675500     -2.93229200     -0.87011300

B 9 10 F

--Link1--
%chk=mol_013_E_scan_pt6.chk
%nprocshared=8
%mem=16GB
#p wB97XD/6-311+G(d,p) Geom=Check Guess=Read Stable=Opt Pop=NBO7Read Density=Current scrf=(smd,solvent=water)

mol_013_E SP+NBO7/CMO after constrained opt at R0+0.30A  [oxime: C8=N9-O10]

1 1

$NBO CMO PRINT=2 E2PERT=0.05 BNDIDX $END


