%chk=mol_013_E_opt.chk
%nprocshared=8
%mem=16GB
#p wB97XD/6-311+G(d,p) opt scrf=(smd,solvent=water)

mol_013_E opt  [oxime: C8=N9-O10]

1 1
C       -1.45530000      2.17070000     -0.44780000
C       -1.42070000      0.74650000      0.01960000
C       -2.57770000      0.10940000      0.44850000
C       -2.57380000     -1.21280000      0.88840000
C       -1.40830000     -1.96730000      0.92240000
C       -0.23480000     -1.37250000      0.50500000
C       -0.25100000     -0.03780000      0.06190000
C        1.11030000      0.31720000     -0.31420000
N        1.34240000      1.49560000     -0.75670000
O        2.97790000      1.56170000     -1.09060000
C        2.03370000     -0.85230000     -0.09230000
C        1.13750000     -1.97110000      0.44840000
H       -1.11780000      2.27020000     -1.47770000
H       -2.46630000      2.56140000     -0.39010000
H       -0.81510000      2.81320000      0.15380000
H       -3.51140000      0.65410000      0.44150000
H       -3.50390000     -1.66100000      1.21140000
H       -1.42660000     -2.99200000      1.26730000
H        3.23920000      2.34580000     -0.57020000
H        2.96350000      1.82970000     -2.02970000
H        2.52050000     -1.10570000     -1.03230000
H        2.82050000     -0.55640000      0.59930000
H        1.46110000     -2.30170000      1.43230000
H        1.15610000     -2.84500000     -0.19850000


