27
mol_024_E_opt
C        3.769100      1.039000      0.306900
C        2.506700      0.278800      0.050600
C        2.539400     -1.074800     -0.311200
C        1.377700     -1.794800     -0.525300
C        0.125000     -1.202400     -0.387700
C        0.079000      0.156200     -0.025000
C        1.263400      0.877500      0.183400
C       -1.248800      0.805700      0.111300
N       -1.150100      2.070600      0.221700
O       -2.756400      2.697600      0.265200
C       -2.504200     -0.018500      0.081200
C       -2.241800     -1.498600      0.294900
C       -1.131500     -1.980600     -0.616500
H        3.634900      2.110400      0.178800
H        4.117700      0.873300      1.327500
H        4.564500      0.708700     -0.357400
H        3.497000     -1.566100     -0.427700
H        1.441200     -2.838900     -0.801400
H        1.206900      1.925200      0.458000
H       -2.663400      3.408500     -0.397500
H       -2.744900      3.125000      1.142800
H       -2.949400      0.162100     -0.898200
H       -3.205900      0.373400      0.813100
H       -1.967500     -1.678000      1.334500
H       -3.159600     -2.047400      0.103600
H       -1.441500     -1.869100     -1.660400
H       -0.957600     -3.043100     -0.465200
