27
mol_024_Z_opt
C        3.682200     -0.192100      0.374500
C        2.241200     -0.471100      0.091900
C        1.820400     -1.715100     -0.387500
C        0.484200     -1.993700     -0.616000
C       -0.495800     -1.038400     -0.386600
C       -0.085700      0.242200      0.035400
C        1.272100      0.501400      0.286200
C       -1.139300      1.227600      0.213800
N       -1.201100      2.489200      0.057600
O        0.269400      3.086100     -0.457000
C       -2.557400      0.790500      0.615700
C       -2.732100     -0.719500      0.613100
C       -1.951200     -1.351600     -0.528300
H        4.185500      0.185700     -0.517100
H        3.804300      0.553600      1.157800
H        4.206100     -1.095000      0.679600
H        2.555600     -2.489300     -0.566700
H        0.194200     -2.977300     -0.960200
H        1.583600      1.446100      0.711000
H       -0.013200      3.970800     -0.751800
H        0.507300      2.540100     -1.235900
H       -2.773500      1.218300      1.595600
H       -3.236300      1.275400     -0.084900
H       -2.392600     -1.135500      1.561500
H       -3.792200     -0.946500      0.523700
H       -2.328800     -0.974300     -1.482900
H       -2.106600     -2.427700     -0.542500
