21
mol_001_E_opt
O        3.403800      1.104300     -0.027400
N        1.803300      1.501300      0.062400
C        1.144300      0.407900     -0.005900
C        1.595000     -1.021700     -0.140100
C        0.301800     -1.849500     -0.174200
C       -0.801200     -0.843600     -0.045600
C       -2.166100     -1.060000     -0.015000
C       -3.014200      0.032400      0.110300
C       -2.518800      1.334300      0.205300
C       -1.158100      1.572300      0.176800
C       -0.309500      0.468600      0.050700
H        3.698700      1.654900     -0.778600
H        3.753200      1.516200      0.786600
H        2.195800     -1.122600     -1.041900
H        2.241800     -1.267700      0.700000
H        0.214200     -2.411400     -1.101100
H        0.271000     -2.573800      0.636100
H       -2.573900     -2.058500     -0.086900
H       -4.083500     -0.127900      0.135100
H       -3.210100      2.159200      0.301800
H       -0.787500      2.585200      0.251200
