28
mol_025_E_opt
C        4.543900      0.815200     -0.105600
O        3.207200      1.317400     -0.186700
C        2.190000      0.472700      0.034300
C        2.332400     -0.889200      0.339800
C        1.211700     -1.671000      0.548800
C       -0.077000     -1.149400      0.465300
C       -0.209400      0.216000      0.155100
C        0.905900      1.017900     -0.051700
C       -1.580500      0.807700      0.070800
N       -1.545100      2.069800      0.011300
O       -3.263700      2.619100      0.032700
C       -2.786500     -0.091500      0.093000
C       -2.441300     -1.547200     -0.180400
C       -1.284000     -2.000800      0.691500
H        5.188600      1.661700     -0.313500
H        4.710700      0.036800     -0.849900
H        4.753200      0.432700      0.893100
H        3.309000     -1.342400      0.414100
H        1.347700     -2.717800      0.779800
H        0.792300      2.070200     -0.284300
H       -3.167700      3.290200      0.734500
H       -3.253200      3.101000     -0.815200
H       -3.525700      0.280300     -0.611400
H       -3.224800      0.025000      1.085300
H       -2.179100     -1.675400     -1.231100
H       -3.319200     -2.160200      0.010500
H       -1.056300     -3.047800      0.502600
H       -1.578800     -1.941300      1.744800
