28
mol_025_Z_opt
C        4.382600      0.284800      0.057800
O        3.128000      0.849800      0.455700
C        1.998600      0.250800      0.047500
C        1.935800     -0.871100     -0.788600
C        0.712800     -1.430100     -1.112700
C       -0.480400     -0.904800     -0.634400
C       -0.414600      0.253800      0.163000
C        0.812900      0.815000      0.516500
C       -1.698200      0.811200      0.588200
N       -2.122800      1.974000      0.823000
O       -0.808600      3.129000      0.546600
C       -2.926200     -0.115100      0.801400
C       -2.642200     -1.543600      0.370200
C       -1.802400     -1.558900     -0.897500
H        4.492500      0.311200     -1.026100
H        5.142500      0.906400      0.516400
H        4.477400     -0.738400      0.420900
H        2.835300     -1.319100     -1.181500
H        0.692900     -2.308300     -1.743400
H        0.898200      1.643100      1.200900
H       -0.697700      3.091500     -0.421600
H       -1.282300      3.952000      0.767300
H       -3.752300      0.321700      0.240800
H       -3.194500     -0.056700      1.856400
H       -2.113100     -2.070300      1.163600
H       -3.583900     -2.065000      0.212300
H       -1.657400     -2.579000     -1.245800
H       -2.333000     -1.033500     -1.697200
