%chk=mol_015_Z_scan_pt1.chk
%nprocshared=8
%mem=16GB
#p wB97XD/6-311+G(d,p) opt=(ModRedundant) SCF=(Tight,XQC) NoSymm scrf=(smd,solvent=water)

mol_015_Z scan pt1 (R0+0.05A) rigid O-N displacement then constrained opt  [oxime: C10=N11-O12]

1 1
C        3.29228300     -0.76996400      0.09272500
C        2.05525600      0.07759100      0.02543300
C        2.11029400      1.46741500     -0.02029300
C        0.95419200      2.25111900     -0.07870900
C       -0.29993100      1.66707000     -0.08925700
C       -0.37111500      0.26877300     -0.04707700
C        0.78964500     -0.51177400      0.00722800
C        0.48722500     -1.97925500      0.06326300
C       -1.03004400     -2.06106500     -0.16164300
C       -1.51860300     -0.63607700     -0.04773100
N       -2.78779500     -0.48638800      0.03412300
O       -3.11885207      1.03666792      0.10551896
H        3.35088200     -1.44146000     -0.76934600
H        3.28538500     -1.39704500      0.98944800
H        4.19154000     -0.15239500      0.11026800
H        3.07956800      1.95588500     -0.00999800
H        1.04321100      3.33054600     -0.11557700
H       -1.18611600      2.28211200     -0.13664300
H        1.04519000     -2.53670200     -0.69182100
H        0.76881400     -2.38505500      1.03918400
H       -1.25789600     -2.40667800     -1.17311200
H       -1.54468400     -2.71604000      0.54019700
H       -3.97446907      1.14516792     -0.34780604
H       -3.25734107      1.27812592      1.04144896

B 11 12 F

--Link1--
%chk=mol_015_Z_scan_pt1.chk
%nprocshared=8
%mem=16GB
#p wB97XD/6-311+G(d,p) Geom=Check Guess=Read Stable=Opt Pop=NBO7Read Density=Current scrf=(smd,solvent=water)

mol_015_Z SP+NBO7/CMO after constrained opt at R0+0.05A  [oxime: C10=N11-O12]

1 1

$NBO CMO PRINT=2 E2PERT=0.05 BNDIDX $END

--Link1--
%chk=mol_015_Z_scan_pt2.chk
%nprocshared=8
%mem=16GB
#p wB97XD/6-311+G(d,p) opt=(ModRedundant) SCF=(Tight,XQC) NoSymm scrf=(smd,solvent=water)

mol_015_Z scan pt2 (R0+0.10A) rigid O-N displacement then constrained opt  [oxime: C10=N11-O12]

1 1
C        3.29228300     -0.76996400      0.09272500
C        2.05525600      0.07759100      0.02543300
C        2.11029400      1.46741500     -0.02029300
C        0.95419200      2.25111900     -0.07870900
C       -0.29993100      1.66707000     -0.08925700
C       -0.37111500      0.26877300     -0.04707700
C        0.78964500     -0.51177400      0.00722800
C        0.48722500     -1.97925500      0.06326300
C       -1.03004400     -2.06106500     -0.16164300
C       -1.51860300     -0.63607700     -0.04773100
N       -2.78779500     -0.48638800      0.03412300
O       -3.12946114      1.08547584      0.10780692
H        3.35088200     -1.44146000     -0.76934600
H        3.28538500     -1.39704500      0.98944800
H        4.19154000     -0.15239500      0.11026800
H        3.07956800      1.95588500     -0.00999800
H        1.04321100      3.33054600     -0.11557700
H       -1.18611600      2.28211200     -0.13664300
H        1.04519000     -2.53670200     -0.69182100
H        0.76881400     -2.38505500      1.03918400
H       -1.25789600     -2.40667800     -1.17311200
H       -1.54468400     -2.71604000      0.54019700
H       -3.98507814      1.19397584     -0.34551808
H       -3.26795014      1.32693384      1.04373692

B 11 12 F

--Link1--
%chk=mol_015_Z_scan_pt2.chk
%nprocshared=8
%mem=16GB
#p wB97XD/6-311+G(d,p) Geom=Check Guess=Read Stable=Opt Pop=NBO7Read Density=Current scrf=(smd,solvent=water)

mol_015_Z SP+NBO7/CMO after constrained opt at R0+0.10A  [oxime: C10=N11-O12]

1 1

$NBO CMO PRINT=2 E2PERT=0.05 BNDIDX $END

--Link1--
%chk=mol_015_Z_scan_pt3.chk
%nprocshared=8
%mem=16GB
#p wB97XD/6-311+G(d,p) opt=(ModRedundant) SCF=(Tight,XQC) NoSymm scrf=(smd,solvent=water)

mol_015_Z scan pt3 (R0+0.15A) rigid O-N displacement then constrained opt  [oxime: C10=N11-O12]

1 1
C        3.29228300     -0.76996400      0.09272500
C        2.05525600      0.07759100      0.02543300
C        2.11029400      1.46741500     -0.02029300
C        0.95419200      2.25111900     -0.07870900
C       -0.29993100      1.66707000     -0.08925700
C       -0.37111500      0.26877300     -0.04707700
C        0.78964500     -0.51177400      0.00722800
C        0.48722500     -1.97925500      0.06326300
C       -1.03004400     -2.06106500     -0.16164300
C       -1.51860300     -0.63607700     -0.04773100
N       -2.78779500     -0.48638800      0.03412300
O       -3.14007021      1.13428375      0.11009487
H        3.35088200     -1.44146000     -0.76934600
H        3.28538500     -1.39704500      0.98944800
H        4.19154000     -0.15239500      0.11026800
H        3.07956800      1.95588500     -0.00999800
H        1.04321100      3.33054600     -0.11557700
H       -1.18611600      2.28211200     -0.13664300
H        1.04519000     -2.53670200     -0.69182100
H        0.76881400     -2.38505500      1.03918400
H       -1.25789600     -2.40667800     -1.17311200
H       -1.54468400     -2.71604000      0.54019700
H       -3.99568721      1.24278375     -0.34323013
H       -3.27855921      1.37574175      1.04602487

B 11 12 F

--Link1--
%chk=mol_015_Z_scan_pt3.chk
%nprocshared=8
%mem=16GB
#p wB97XD/6-311+G(d,p) Geom=Check Guess=Read Stable=Opt Pop=NBO7Read Density=Current scrf=(smd,solvent=water)

mol_015_Z SP+NBO7/CMO after constrained opt at R0+0.15A  [oxime: C10=N11-O12]

1 1

$NBO CMO PRINT=2 E2PERT=0.05 BNDIDX $END

--Link1--
%chk=mol_015_Z_scan_pt4.chk
%nprocshared=8
%mem=16GB
#p wB97XD/6-311+G(d,p) opt=(ModRedundant) SCF=(Tight,XQC) NoSymm scrf=(smd,solvent=water)

mol_015_Z scan pt4 (R0+0.20A) rigid O-N displacement then constrained opt  [oxime: C10=N11-O12]

1 1
C        3.29228300     -0.76996400      0.09272500
C        2.05525600      0.07759100      0.02543300
C        2.11029400      1.46741500     -0.02029300
C        0.95419200      2.25111900     -0.07870900
C       -0.29993100      1.66707000     -0.08925700
C       -0.37111500      0.26877300     -0.04707700
C        0.78964500     -0.51177400      0.00722800
C        0.48722500     -1.97925500      0.06326300
C       -1.03004400     -2.06106500     -0.16164300
C       -1.51860300     -0.63607700     -0.04773100
N       -2.78779500     -0.48638800      0.03412300
O       -3.15067928      1.18309167      0.11238283
H        3.35088200     -1.44146000     -0.76934600
H        3.28538500     -1.39704500      0.98944800
H        4.19154000     -0.15239500      0.11026800
H        3.07956800      1.95588500     -0.00999800
H        1.04321100      3.33054600     -0.11557700
H       -1.18611600      2.28211200     -0.13664300
H        1.04519000     -2.53670200     -0.69182100
H        0.76881400     -2.38505500      1.03918400
H       -1.25789600     -2.40667800     -1.17311200
H       -1.54468400     -2.71604000      0.54019700
H       -4.00629628      1.29159167     -0.34094217
H       -3.28916828      1.42454967      1.04831283

B 11 12 F

--Link1--
%chk=mol_015_Z_scan_pt4.chk
%nprocshared=8
%mem=16GB
#p wB97XD/6-311+G(d,p) Geom=Check Guess=Read Stable=Opt Pop=NBO7Read Density=Current scrf=(smd,solvent=water)

mol_015_Z SP+NBO7/CMO after constrained opt at R0+0.20A  [oxime: C10=N11-O12]

1 1

$NBO CMO PRINT=2 E2PERT=0.05 BNDIDX $END

--Link1--
%chk=mol_015_Z_scan_pt5.chk
%nprocshared=8
%mem=16GB
#p wB97XD/6-311+G(d,p) opt=(ModRedundant) SCF=(Tight,XQC) NoSymm scrf=(smd,solvent=water)

mol_015_Z scan pt5 (R0+0.25A) rigid O-N displacement then constrained opt  [oxime: C10=N11-O12]

1 1
C        3.29228300     -0.76996400      0.09272500
C        2.05525600      0.07759100      0.02543300
C        2.11029400      1.46741500     -0.02029300
C        0.95419200      2.25111900     -0.07870900
C       -0.29993100      1.66707000     -0.08925700
C       -0.37111500      0.26877300     -0.04707700
C        0.78964500     -0.51177400      0.00722800
C        0.48722500     -1.97925500      0.06326300
C       -1.03004400     -2.06106500     -0.16164300
C       -1.51860300     -0.63607700     -0.04773100
N       -2.78779500     -0.48638800      0.03412300
O       -3.16128835      1.23189959      0.11467079
H        3.35088200     -1.44146000     -0.76934600
H        3.28538500     -1.39704500      0.98944800
H        4.19154000     -0.15239500      0.11026800
H        3.07956800      1.95588500     -0.00999800
H        1.04321100      3.33054600     -0.11557700
H       -1.18611600      2.28211200     -0.13664300
H        1.04519000     -2.53670200     -0.69182100
H        0.76881400     -2.38505500      1.03918400
H       -1.25789600     -2.40667800     -1.17311200
H       -1.54468400     -2.71604000      0.54019700
H       -4.01690535      1.34039959     -0.33865421
H       -3.29977735      1.47335759      1.05060079

B 11 12 F

--Link1--
%chk=mol_015_Z_scan_pt5.chk
%nprocshared=8
%mem=16GB
#p wB97XD/6-311+G(d,p) Geom=Check Guess=Read Stable=Opt Pop=NBO7Read Density=Current scrf=(smd,solvent=water)

mol_015_Z SP+NBO7/CMO after constrained opt at R0+0.25A  [oxime: C10=N11-O12]

1 1

$NBO CMO PRINT=2 E2PERT=0.05 BNDIDX $END

--Link1--
%chk=mol_015_Z_scan_pt6.chk
%nprocshared=8
%mem=16GB
#p wB97XD/6-311+G(d,p) opt=(ModRedundant) SCF=(Tight,XQC) NoSymm scrf=(smd,solvent=water)

mol_015_Z scan pt6 (R0+0.30A) rigid O-N displacement then constrained opt  [oxime: C10=N11-O12]

1 1
C        3.29228300     -0.76996400      0.09272500
C        2.05525600      0.07759100      0.02543300
C        2.11029400      1.46741500     -0.02029300
C        0.95419200      2.25111900     -0.07870900
C       -0.29993100      1.66707000     -0.08925700
C       -0.37111500      0.26877300     -0.04707700
C        0.78964500     -0.51177400      0.00722800
C        0.48722500     -1.97925500      0.06326300
C       -1.03004400     -2.06106500     -0.16164300
C       -1.51860300     -0.63607700     -0.04773100
N       -2.78779500     -0.48638800      0.03412300
O       -3.17189742      1.28070751      0.11695875
H        3.35088200     -1.44146000     -0.76934600
H        3.28538500     -1.39704500      0.98944800
H        4.19154000     -0.15239500      0.11026800
H        3.07956800      1.95588500     -0.00999800
H        1.04321100      3.33054600     -0.11557700
H       -1.18611600      2.28211200     -0.13664300
H        1.04519000     -2.53670200     -0.69182100
H        0.76881400     -2.38505500      1.03918400
H       -1.25789600     -2.40667800     -1.17311200
H       -1.54468400     -2.71604000      0.54019700
H       -4.02751442      1.38920751     -0.33636625
H       -3.31038642      1.52216551      1.05288875

B 11 12 F

--Link1--
%chk=mol_015_Z_scan_pt6.chk
%nprocshared=8
%mem=16GB
#p wB97XD/6-311+G(d,p) Geom=Check Guess=Read Stable=Opt Pop=NBO7Read Density=Current scrf=(smd,solvent=water)

mol_015_Z SP+NBO7/CMO after constrained opt at R0+0.30A  [oxime: C10=N11-O12]

1 1

$NBO CMO PRINT=2 E2PERT=0.05 BNDIDX $END


