%chk=mol_020_E_sp5.chk
%nprocshared=8
%mem=16GB
#p wB97XD/6-311+G(d,p) opt=(ModRedundant,CalcFC,MaxCycles=300) pop=nbo7read scrf=(smd,solvent=water)

mol_020_E_sp5  R(N-O)=1.9029A restart from converged point4  [oxime: C11=N12-O13]

1 1
C       -4.25187200     -0.29982800     -0.03793600
C       -2.75087800     -0.31329200     -0.00869200
C       -2.06052200     -1.50342400      0.25268400
C       -0.68048300     -1.52715700      0.27438300
C        0.04174700     -0.35097100      0.03092300
C       -0.62545500      0.85825800     -0.21270200
C       -2.01789100      0.85023900     -0.22742900
C        0.15790500      2.12864900     -0.39550700
C        1.35728300      2.12464200      0.54767400
C        2.27644200      0.95234400      0.23844400
C        1.52358900     -0.32942400      0.00412500
N        2.01294500     -1.45927800     -0.30694100
O        3.90221846     -1.24827641     -0.22236833
H       -4.63999800      0.71913400     -0.07730500
H       -4.61825900     -0.83943400     -0.91661800
H       -4.66229600     -0.79811000      0.84392500
H       -2.61617000     -2.41288700      0.45412800
H       -0.16054800     -2.44937800      0.50376500
H       -2.54115500      1.78563800     -0.40045300
H        0.50578700      2.20515800     -1.43258000
H       -0.48805400      2.98688800     -0.20516100
H        1.93036200      3.04754100      0.44455600
H        1.00765700      2.06519200      1.58226300
H        2.99676500      0.77481800      1.03911600
H        2.84669600      1.13615100     -0.67730000
H        4.12574146     -1.39878141      0.71234367
H        4.17858646     -2.05012741     -0.69451133

B 12 13 F

$NBO E2PERT BNDIDX NBOSUM CMO $END


