%chk=mol_020_E_sp3.chk
%nprocshared=8
%mem=16GB
#p wB97XD/6-311+G(d,p) sp pop=nbo7read scrf=(smd,solvent=water)

mol_020_E_sp3  R(N-O)=1.7029A  [oxime: C11=N12-O13]

1 1
C       -4.24665000     -0.29771300     -0.03232600
C       -2.74539900     -0.31038500     -0.00729600
C       -2.05280500     -1.50297900      0.23778400
C       -0.67285500     -1.52491000      0.25630100
C        0.05191400     -0.34670700      0.02713100
C       -0.62016900      0.86304000     -0.20061100
C       -2.01315400      0.85489600     -0.21491200
C        0.15763500      2.13745100     -0.38133500
C        1.37455400      2.12705700      0.53709600
C        2.28398500      0.95224500      0.20638600
C        1.53032800     -0.33183200      0.00046900
N        2.03538300     -1.47182200     -0.27011500
O        3.72624300     -1.27624600     -0.21846200
H       -4.63542300      0.72133400     -0.06381900
H       -4.61594700     -0.83181700     -0.91314200
H       -4.65435100     -0.80154000      0.84772100
H       -2.60713400     -2.41573100      0.42815700
H       -0.15287700     -2.45082000      0.47046300
H       -2.53696800      1.79162800     -0.37924900
H        0.48485200      2.22636900     -1.42428300
H       -0.48670700      2.99223300     -0.16997200
H        1.94707600      3.04971500      0.42881900
H        1.04472200      2.06286100      1.57815700
H        3.02886500      0.79029200      0.98767900
H        2.82936000      1.13621600     -0.72517000
H        3.98458000     -1.41943100      0.70983500
H        4.02802500     -2.05955600     -0.70881600

$NBO E2PERT BNDIDX NBOSUM CMO $END


