%chk=mol_020_E_sp2.chk
%nprocshared=8
%mem=16GB
#p wB97XD/6-311+G(d,p) sp pop=nbo7read scrf=(smd,solvent=water)

mol_020_E_sp2  R(N-O)=1.6029A  [oxime: C11=N12-O13]

1 1
C       -4.24087500     -0.29416900     -0.06060800
C       -2.74010100     -0.30436500     -0.01089900
C       -2.04880700     -1.49714900      0.23889500
C       -0.66928700     -1.51801600      0.26981700
C        0.06049800     -0.34023600      0.05151500
C       -0.61249000      0.86922800     -0.17524000
C       -2.00588200      0.86122800     -0.20497800
C        0.16188300      2.14603100     -0.35802800
C        1.40245200      2.12911600      0.52632900
C        2.29614200      0.94971800      0.16813700
C        1.53585000     -0.33590500      0.01245700
N        2.04943100     -1.48560700     -0.22012700
O        3.64169300     -1.30302500     -0.24672800
H       -4.63079400      0.72420700     -0.10003500
H       -4.59436800     -0.82964500     -0.94712400
H       -4.66313600     -0.79772200      0.81271700
H       -2.60448700     -2.41144600      0.41806000
H       -0.15151800     -2.44616400      0.47959300
H       -2.52799100      1.79799800     -0.37503100
H        0.46115800      2.24655100     -1.40850000
H       -0.47784500      2.99817200     -0.12227200
H        1.97479900      3.05043600      0.40621900
H        1.10098300      2.06246400      1.57607100
H        3.07771300      0.80474300      0.91629500
H        2.80006600      1.12692200     -0.78850200
H        3.97212800     -1.42434800      0.66251400
H        3.94742600     -2.07160800     -0.75966800

$NBO E2PERT BNDIDX NBOSUM CMO $END


