%chk=mol_030_E.chk
%nprocshared=8
%mem=16GB
#p wB97XD/6-311+G(d,p) sp pop=nboread

mol_030_E  [oxime: C12=N13-O14]

1 1
C        4.12300000     -0.43710000      0.39300000
O        2.73430000     -0.77480000      0.35980000
C        1.83210000      0.18650000      0.09960000
C        2.15770000      1.52110000     -0.14120000
C        1.15040000      2.44380000     -0.38740000
C       -0.17290000      2.06400000     -0.38540000
C       -0.50300000      0.72330000     -0.14530000
C        0.48280000     -0.23950000      0.07780000
C        0.13600000     -1.67930000      0.28950000
C       -1.12570000     -2.05080000     -0.46570000
C       -2.28740000     -1.16370000     -0.05010000
C       -1.93640000      0.29760000     -0.07710000
N       -2.71720000      1.28730000     -0.01460000
O       -4.38050000      0.60220000      0.19150000
H        4.64630000     -1.36000000      0.61300000
H        4.32410000      0.29380000      1.17530000
H        4.44800000     -0.05350000     -0.57330000
H        3.18440000      1.85240000     -0.14200000
H        1.41480000      3.47250000     -0.57780000
H       -0.94220000      2.79960000     -0.57480000
H        0.95630000     -2.32240000     -0.01210000
H       -0.00640000     -1.86190000      1.35960000
H       -0.95020000     -1.95680000     -1.53790000
H       -1.38560000     -3.08950000     -0.27400000
H       -3.16190000     -1.33630000     -0.67140000
H       -2.59030000     -1.37780000      0.97560000
H       -4.64420000      1.14790000      0.95580000
H       -4.78610000      1.01150000     -0.59510000
$NBO E2PERT BNDIDX NBOSUM $END


