27
mol_020_E_opt
C        4.062100     -0.712100     -0.121400
C        2.639000     -0.278600     -0.104000
C        2.307700      1.080300     -0.009200
C        0.993900      1.487000      0.025700
C       -0.043000      0.540100     -0.026300
C        0.270500     -0.828900     -0.122700
C        1.605100     -1.207500     -0.159900
C       -0.816900     -1.854300     -0.184700
C       -2.016400     -1.423500      0.635400
C       -2.544400     -0.086700      0.146400
C       -1.461200      0.944200     -0.003500
N       -1.604600      2.204900     -0.145600
O       -3.284900      2.515200     -0.203200
H        4.168000     -1.735000     -0.468200
H        4.667100     -0.065700     -0.753300
H        4.484800     -0.658900      0.883400
H        3.099100      1.816100      0.033500
H        0.763600      2.543400      0.098600
H        1.845900     -2.259700     -0.231300
H       -1.121100     -1.998100     -1.226400
H       -0.453000     -2.819100      0.159700
H       -2.811800     -2.160100      0.566000
H       -1.734900     -1.347200      1.686000
H       -3.319900      0.300900      0.802700
H       -2.997400     -0.184100     -0.841300
H       -3.378000      3.111100      0.564800
H       -3.318900      3.077000     -1.001200
