27
mol_020_Z_opt
C        3.893500     -0.326300     -0.034800
C        2.435800     -0.030300     -0.090400
C        1.974700      1.289200     -0.088000
C        0.628600      1.563300     -0.098900
C       -0.311100      0.518300     -0.114000
C        0.136800     -0.818900     -0.183000
C        1.501100     -1.058700     -0.139300
C       -0.808700     -1.973800     -0.368500
C       -2.260600     -1.662600     -0.044400
C       -2.658900     -0.327100     -0.654700
C       -1.749800      0.740700     -0.075600
N       -2.509400      1.637800      0.414600
O       -1.585500      2.790200      1.234000
H        4.242200     -0.328400      0.999900
H        4.120600     -1.301900     -0.453900
H        4.475600      0.423800     -0.564300
H        2.687000      2.101900     -0.090700
H        0.312900      2.595400     -0.145700
H        1.845600     -2.084400     -0.164100
H       -0.741000     -2.284300     -1.414400
H       -0.464100     -2.827700      0.213800
H       -2.903900     -2.449600     -0.434800
H       -2.419700     -1.631400      1.035000
H       -3.703000     -0.084200     -0.479000
H       -2.502800     -0.334300     -1.734000
H       -1.377600      2.381400      2.097300
H       -2.257900      3.481600      1.378100
