26
mol_023_E_opt
O       -4.713700     -0.878500      0.118500
N       -4.233500      0.244200      0.049300
O       -4.862000      1.291700     -0.014200
C       -2.751400      0.345100      0.041500
C       -2.166400      1.602200     -0.034300
C       -0.790300      1.689300     -0.036500
C       -0.003700      0.528400      0.029900
C       -0.614700     -0.738300      0.102400
C       -2.003200     -0.813200      0.108700
C        0.205900     -1.983400      0.166100
C        1.485800     -1.834900     -0.634500
C        2.299400     -0.659300     -0.121200
C        1.478700      0.584800      0.046400
N        1.898200      1.774000      0.241500
O        3.570100      1.716300      0.335300
H       -2.786400      2.483000     -0.088700
H       -0.329300      2.667600     -0.096100
H       -2.507300     -1.766200      0.159600
H        0.453000     -2.192900      1.212100
H       -0.365800     -2.838800     -0.184700
H        2.088500     -2.735800     -0.561500
H        1.246900     -1.688700     -1.688200
H        3.147800     -0.444100     -0.768500
H        2.715500     -0.874300      0.865800
H        3.821900      2.299900     -0.407900
H        3.716300      2.221600      1.159400
