21
mol_011_Z_opt
O       -0.485900      2.995100     -1.014700
N       -1.675700      1.832600     -0.717100
C       -1.129400      0.737000     -0.373600
C       -2.192500     -0.331100     -0.121600
C       -1.435100     -1.466400      0.587100
C        0.003300     -1.106300      0.436500
C        1.109600     -1.864700      0.785400
C        2.377400     -1.353500      0.586700
C        2.541600     -0.085700      0.032600
F        3.780400      0.379900     -0.153700
C        1.467600      0.700100     -0.330100
C        0.188200      0.177000     -0.112500
H       -0.874300      3.431500     -1.798200
H       -0.596800      3.606300     -0.260000
H       -2.579300     -0.647400     -1.087000
H       -3.028100      0.065100      0.445400
H       -1.664100     -2.440300      0.160700
H       -1.707400     -1.513000      1.641300
H        0.988300     -2.850700      1.211600
H        3.250100     -1.928600      0.855900
H        1.662200      1.663100     -0.774500
