%chk=mol_029_E_scan_pt1.chk
%nprocshared=10
%mem=16GB
#p wB97XD/6-311+G(d,p) opt=(ModRedundant) SCF=(Tight,XQC) NoSymm scrf=(smd,solvent=water)

mol_029_E scan pt1 (R0+0.05A) rigid O-N displacement then constrained opt  [oxime: C3=N2-O1]

1 1
O       -3.28832192     -1.03314166     -0.30724541
N       -1.74312700     -1.25298500     -0.33951600
C       -1.18339100     -0.14302500     -0.01869200
C       -1.91950700      1.13507200      0.27616700
C       -1.00048300      2.29129200      0.64105000
C        0.18068000      2.34088600     -0.31936000
C        0.96969900      1.06515400     -0.21069900
C        2.35945900      1.07793800     -0.26720800
C        3.08931100     -0.09283800     -0.11914300
C        2.44210400     -1.30189400      0.10131400
C        1.06499000     -1.31181000      0.14404000
F        0.46572800     -2.49206400      0.37768800
C        0.29273700     -0.15599100     -0.01796100
H       -3.63320092     -1.39504366     -1.14448941
H       -3.65021092     -1.58298566      0.41369759
H       -2.64560900      0.93367500      1.06621200
H       -2.49344200      1.37854800     -0.62426000
H       -0.63371600      2.17412800      1.66513200
H       -1.57174900      3.21993800      0.59959500
H        0.83262800      3.18861800     -0.10442300
H       -0.18517000      2.46226100     -1.34613700
H        2.87074900      2.02188900     -0.41687400
H        4.17189900     -0.06719100     -0.16039000
H        2.98622800     -2.22752400      0.24061400

B 2 1 F

--Link1--
%chk=mol_029_E_scan_pt1.chk
%nprocshared=10
%mem=16GB
#p wB97XD/6-311+G(d,p) Geom=Check Guess=Read Stable=Opt Pop=NBO7Read Density=Current scrf=(smd,solvent=water)

mol_029_E SP+NBO7/CMO after constrained opt at R0+0.05A  [oxime: C3=N2-O1]

1 1

$NBO CMO PRINT=2 E2PERT=0.05 BNDIDX $END

--Link1--
%chk=mol_029_E_scan_pt2.chk
%nprocshared=10
%mem=16GB
#p wB97XD/6-311+G(d,p) opt=(ModRedundant) SCF=(Tight,XQC) NoSymm scrf=(smd,solvent=water)

mol_029_E scan pt2 (R0+0.10A) rigid O-N displacement then constrained opt  [oxime: C3=N2-O1]

1 1
O       -3.33781284     -1.02610031     -0.30621182
N       -1.74312700     -1.25298500     -0.33951600
C       -1.18339100     -0.14302500     -0.01869200
C       -1.91950700      1.13507200      0.27616700
C       -1.00048300      2.29129200      0.64105000
C        0.18068000      2.34088600     -0.31936000
C        0.96969900      1.06515400     -0.21069900
C        2.35945900      1.07793800     -0.26720800
C        3.08931100     -0.09283800     -0.11914300
C        2.44210400     -1.30189400      0.10131400
C        1.06499000     -1.31181000      0.14404000
F        0.46572800     -2.49206400      0.37768800
C        0.29273700     -0.15599100     -0.01796100
H       -3.68269184     -1.38800231     -1.14345582
H       -3.69970184     -1.57594431      0.41473118
H       -2.64560900      0.93367500      1.06621200
H       -2.49344200      1.37854800     -0.62426000
H       -0.63371600      2.17412800      1.66513200
H       -1.57174900      3.21993800      0.59959500
H        0.83262800      3.18861800     -0.10442300
H       -0.18517000      2.46226100     -1.34613700
H        2.87074900      2.02188900     -0.41687400
H        4.17189900     -0.06719100     -0.16039000
H        2.98622800     -2.22752400      0.24061400

B 2 1 F

--Link1--
%chk=mol_029_E_scan_pt2.chk
%nprocshared=10
%mem=16GB
#p wB97XD/6-311+G(d,p) Geom=Check Guess=Read Stable=Opt Pop=NBO7Read Density=Current scrf=(smd,solvent=water)

mol_029_E SP+NBO7/CMO after constrained opt at R0+0.10A  [oxime: C3=N2-O1]

1 1

$NBO CMO PRINT=2 E2PERT=0.05 BNDIDX $END

--Link1--
%chk=mol_029_E_scan_pt3.chk
%nprocshared=10
%mem=16GB
#p wB97XD/6-311+G(d,p) opt=(ModRedundant) SCF=(Tight,XQC) NoSymm scrf=(smd,solvent=water)

mol_029_E scan pt3 (R0+0.15A) rigid O-N displacement then constrained opt  [oxime: C3=N2-O1]

1 1
O       -3.38730376     -1.01905897     -0.30517822
N       -1.74312700     -1.25298500     -0.33951600
C       -1.18339100     -0.14302500     -0.01869200
C       -1.91950700      1.13507200      0.27616700
C       -1.00048300      2.29129200      0.64105000
C        0.18068000      2.34088600     -0.31936000
C        0.96969900      1.06515400     -0.21069900
C        2.35945900      1.07793800     -0.26720800
C        3.08931100     -0.09283800     -0.11914300
C        2.44210400     -1.30189400      0.10131400
C        1.06499000     -1.31181000      0.14404000
F        0.46572800     -2.49206400      0.37768800
C        0.29273700     -0.15599100     -0.01796100
H       -3.73218276     -1.38096097     -1.14242222
H       -3.74919276     -1.56890297      0.41576478
H       -2.64560900      0.93367500      1.06621200
H       -2.49344200      1.37854800     -0.62426000
H       -0.63371600      2.17412800      1.66513200
H       -1.57174900      3.21993800      0.59959500
H        0.83262800      3.18861800     -0.10442300
H       -0.18517000      2.46226100     -1.34613700
H        2.87074900      2.02188900     -0.41687400
H        4.17189900     -0.06719100     -0.16039000
H        2.98622800     -2.22752400      0.24061400

B 2 1 F

--Link1--
%chk=mol_029_E_scan_pt3.chk
%nprocshared=10
%mem=16GB
#p wB97XD/6-311+G(d,p) Geom=Check Guess=Read Stable=Opt Pop=NBO7Read Density=Current scrf=(smd,solvent=water)

mol_029_E SP+NBO7/CMO after constrained opt at R0+0.15A  [oxime: C3=N2-O1]

1 1

$NBO CMO PRINT=2 E2PERT=0.05 BNDIDX $END

--Link1--
%chk=mol_029_E_scan_pt4.chk
%nprocshared=10
%mem=16GB
#p wB97XD/6-311+G(d,p) opt=(ModRedundant) SCF=(Tight,XQC) NoSymm scrf=(smd,solvent=water)

mol_029_E scan pt4 (R0+0.20A) rigid O-N displacement then constrained opt  [oxime: C3=N2-O1]

1 1
O       -3.43679468     -1.01201762     -0.30414463
N       -1.74312700     -1.25298500     -0.33951600
C       -1.18339100     -0.14302500     -0.01869200
C       -1.91950700      1.13507200      0.27616700
C       -1.00048300      2.29129200      0.64105000
C        0.18068000      2.34088600     -0.31936000
C        0.96969900      1.06515400     -0.21069900
C        2.35945900      1.07793800     -0.26720800
C        3.08931100     -0.09283800     -0.11914300
C        2.44210400     -1.30189400      0.10131400
C        1.06499000     -1.31181000      0.14404000
F        0.46572800     -2.49206400      0.37768800
C        0.29273700     -0.15599100     -0.01796100
H       -3.78167368     -1.37391962     -1.14138863
H       -3.79868368     -1.56186162      0.41679837
H       -2.64560900      0.93367500      1.06621200
H       -2.49344200      1.37854800     -0.62426000
H       -0.63371600      2.17412800      1.66513200
H       -1.57174900      3.21993800      0.59959500
H        0.83262800      3.18861800     -0.10442300
H       -0.18517000      2.46226100     -1.34613700
H        2.87074900      2.02188900     -0.41687400
H        4.17189900     -0.06719100     -0.16039000
H        2.98622800     -2.22752400      0.24061400

B 2 1 F

--Link1--
%chk=mol_029_E_scan_pt4.chk
%nprocshared=10
%mem=16GB
#p wB97XD/6-311+G(d,p) Geom=Check Guess=Read Stable=Opt Pop=NBO7Read Density=Current scrf=(smd,solvent=water)

mol_029_E SP+NBO7/CMO after constrained opt at R0+0.20A  [oxime: C3=N2-O1]

1 1

$NBO CMO PRINT=2 E2PERT=0.05 BNDIDX $END

--Link1--
%chk=mol_029_E_scan_pt5.chk
%nprocshared=10
%mem=16GB
#p wB97XD/6-311+G(d,p) opt=(ModRedundant) SCF=(Tight,XQC) NoSymm scrf=(smd,solvent=water)

mol_029_E scan pt5 (R0+0.25A) rigid O-N displacement then constrained opt  [oxime: C3=N2-O1]

1 1
O       -3.48628560     -1.00497628     -0.30311104
N       -1.74312700     -1.25298500     -0.33951600
C       -1.18339100     -0.14302500     -0.01869200
C       -1.91950700      1.13507200      0.27616700
C       -1.00048300      2.29129200      0.64105000
C        0.18068000      2.34088600     -0.31936000
C        0.96969900      1.06515400     -0.21069900
C        2.35945900      1.07793800     -0.26720800
C        3.08931100     -0.09283800     -0.11914300
C        2.44210400     -1.30189400      0.10131400
C        1.06499000     -1.31181000      0.14404000
F        0.46572800     -2.49206400      0.37768800
C        0.29273700     -0.15599100     -0.01796100
H       -3.83116460     -1.36687828     -1.14035504
H       -3.84817460     -1.55482028      0.41783196
H       -2.64560900      0.93367500      1.06621200
H       -2.49344200      1.37854800     -0.62426000
H       -0.63371600      2.17412800      1.66513200
H       -1.57174900      3.21993800      0.59959500
H        0.83262800      3.18861800     -0.10442300
H       -0.18517000      2.46226100     -1.34613700
H        2.87074900      2.02188900     -0.41687400
H        4.17189900     -0.06719100     -0.16039000
H        2.98622800     -2.22752400      0.24061400

B 2 1 F

--Link1--
%chk=mol_029_E_scan_pt5.chk
%nprocshared=10
%mem=16GB
#p wB97XD/6-311+G(d,p) Geom=Check Guess=Read Stable=Opt Pop=NBO7Read Density=Current scrf=(smd,solvent=water)

mol_029_E SP+NBO7/CMO after constrained opt at R0+0.25A  [oxime: C3=N2-O1]

1 1

$NBO CMO PRINT=2 E2PERT=0.05 BNDIDX $END

--Link1--
%chk=mol_029_E_scan_pt6.chk
%nprocshared=10
%mem=16GB
#p wB97XD/6-311+G(d,p) opt=(ModRedundant) SCF=(Tight,XQC) NoSymm scrf=(smd,solvent=water)

mol_029_E scan pt6 (R0+0.30A) rigid O-N displacement then constrained opt  [oxime: C3=N2-O1]

1 1
O       -3.53577652     -0.99793493     -0.30207745
N       -1.74312700     -1.25298500     -0.33951600
C       -1.18339100     -0.14302500     -0.01869200
C       -1.91950700      1.13507200      0.27616700
C       -1.00048300      2.29129200      0.64105000
C        0.18068000      2.34088600     -0.31936000
C        0.96969900      1.06515400     -0.21069900
C        2.35945900      1.07793800     -0.26720800
C        3.08931100     -0.09283800     -0.11914300
C        2.44210400     -1.30189400      0.10131400
C        1.06499000     -1.31181000      0.14404000
F        0.46572800     -2.49206400      0.37768800
C        0.29273700     -0.15599100     -0.01796100
H       -3.88065552     -1.35983693     -1.13932145
H       -3.89766552     -1.54777893      0.41886555
H       -2.64560900      0.93367500      1.06621200
H       -2.49344200      1.37854800     -0.62426000
H       -0.63371600      2.17412800      1.66513200
H       -1.57174900      3.21993800      0.59959500
H        0.83262800      3.18861800     -0.10442300
H       -0.18517000      2.46226100     -1.34613700
H        2.87074900      2.02188900     -0.41687400
H        4.17189900     -0.06719100     -0.16039000
H        2.98622800     -2.22752400      0.24061400

B 2 1 F

--Link1--
%chk=mol_029_E_scan_pt6.chk
%nprocshared=10
%mem=16GB
#p wB97XD/6-311+G(d,p) Geom=Check Guess=Read Stable=Opt Pop=NBO7Read Density=Current scrf=(smd,solvent=water)

mol_029_E SP+NBO7/CMO after constrained opt at R0+0.30A  [oxime: C3=N2-O1]

1 1

$NBO CMO PRINT=2 E2PERT=0.05 BNDIDX $END


