%chk=mol_029_E_opt.chk
%nprocshared=10
%mem=16GB
#p wB97XD/6-311+G(d,p) opt scrf=(smd,solvent=water)

mol_029_E opt  [oxime: C3=N2-O1]

1 1
O       -2.48760000      2.61860000      0.31080000
N       -0.87860000      2.11590000      0.48840000
C       -0.79320000      0.93170000      0.01390000
C       -1.91620000      0.08810000     -0.53350000
C       -1.45380000     -1.27800000     -1.01030000
C       -0.51660000     -1.89440000      0.00990000
C        0.69880000     -1.03790000      0.18100000
C        1.95210000     -1.59910000      0.36890000
C        3.08200000     -0.80090000      0.47500000
C        2.98550000      0.57920000      0.38670000
C        1.74140000      1.14610000      0.20690000
F        1.67160000      2.47960000      0.08030000
C        0.56950000      0.36870000      0.12540000
H       -2.63630000      2.99260000      1.20070000
H       -2.37390000      3.37370000     -0.29900000
H       -2.42270000      0.63960000     -1.32510000
H       -2.63800000     -0.01950000      0.27780000
H       -0.94340000     -1.18800000     -1.96900000
H       -2.32560000     -1.90760000     -1.16260000
H       -0.23850000     -2.89990000     -0.29280000
H       -1.03560000     -1.99280000      0.96750000
H        2.04470000     -2.67490000      0.42320000
H        4.05400000     -1.25040000      0.62180000
H        3.86030000      1.20990000      0.45380000


