%chk=mol_013_Z_scan_pt1.chk
%nprocshared=8
%mem=16GB
#p wB97XD/6-311+G(d,p) opt=(ModRedundant) SCF=(Tight,XQC) NoSymm scrf=(smd,solvent=water)

mol_013_Z scan pt1 (R0+0.05A) rigid O-N displacement then constrained opt  [oxime: C8=N9-O10]

1 1
C        0.39501900     -2.45520800      0.59116800
C       -0.49074400     -1.30732600      0.19361400
C       -1.85205300     -1.54555500      0.00343800
C       -2.75652900     -0.52019700     -0.26120000
C       -2.34105400      0.80503800     -0.29853200
C       -0.99644500      1.07512600     -0.10622500
C       -0.07322700      0.03100000      0.07865000
C        1.24638900      0.67205100      0.17663800
N        2.44574100      0.34485200     -0.12731900
O        2.44194841     -1.10903010     -0.69170094
C        1.04202900      2.11144700      0.56878200
C       -0.33487600      2.42423500     -0.04373800
H        1.20046000     -2.13412800      1.25349900
H       -0.19823900     -3.20910500      1.11174000
H        0.84604000     -2.93132100     -0.28260800
H       -2.21765000     -2.56273100      0.09496000
H       -3.80464700     -0.76114000     -0.40071500
H       -3.05094100      1.60972300     -0.45139200
H        2.66975541     -1.04703010     -1.63768594
H        3.15678941     -1.60335510     -0.25034394
H        0.98674700      2.15291100      1.66056300
H        1.84786800      2.75863200      0.22872000
H       -0.21659700      2.83939300     -1.04867500
H       -0.90763000      3.13663900      0.55027800

B 9 10 F

--Link1--
%chk=mol_013_Z_scan_pt1.chk
%nprocshared=8
%mem=16GB
#p wB97XD/6-311+G(d,p) Geom=Check Guess=Read Stable=Opt Pop=NBO7Read Density=Current scrf=(smd,solvent=water)

mol_013_Z SP+NBO7/CMO after constrained opt at R0+0.05A  [oxime: C8=N9-O10]

1 1

$NBO CMO PRINT=2 E2PERT=0.05 BNDIDX $END

--Link1--
%chk=mol_013_Z_scan_pt2.chk
%nprocshared=8
%mem=16GB
#p wB97XD/6-311+G(d,p) opt=(ModRedundant) SCF=(Tight,XQC) NoSymm scrf=(smd,solvent=water)

mol_013_Z scan pt2 (R0+0.10A) rigid O-N displacement then constrained opt  [oxime: C8=N9-O10]

1 1
C        0.39501900     -2.45520800      0.59116800
C       -0.49074400     -1.30732600      0.19361400
C       -1.85205300     -1.54555500      0.00343800
C       -2.75652900     -0.52019700     -0.26120000
C       -2.34105400      0.80503800     -0.29853200
C       -0.99644500      1.07512600     -0.10622500
C       -0.07322700      0.03100000      0.07865000
C        1.24638900      0.67205100      0.17663800
N        2.44574100      0.34485200     -0.12731900
O        2.44182682     -1.15564119     -0.70979489
C        1.04202900      2.11144700      0.56878200
C       -0.33487600      2.42423500     -0.04373800
H        1.20046000     -2.13412800      1.25349900
H       -0.19823900     -3.20910500      1.11174000
H        0.84604000     -2.93132100     -0.28260800
H       -2.21765000     -2.56273100      0.09496000
H       -3.80464700     -0.76114000     -0.40071500
H       -3.05094100      1.60972300     -0.45139200
H        2.66963382     -1.09364119     -1.65577989
H        3.15666782     -1.64996619     -0.26843789
H        0.98674700      2.15291100      1.66056300
H        1.84786800      2.75863200      0.22872000
H       -0.21659700      2.83939300     -1.04867500
H       -0.90763000      3.13663900      0.55027800

B 9 10 F

--Link1--
%chk=mol_013_Z_scan_pt2.chk
%nprocshared=8
%mem=16GB
#p wB97XD/6-311+G(d,p) Geom=Check Guess=Read Stable=Opt Pop=NBO7Read Density=Current scrf=(smd,solvent=water)

mol_013_Z SP+NBO7/CMO after constrained opt at R0+0.10A  [oxime: C8=N9-O10]

1 1

$NBO CMO PRINT=2 E2PERT=0.05 BNDIDX $END

--Link1--
%chk=mol_013_Z_scan_pt3.chk
%nprocshared=8
%mem=16GB
#p wB97XD/6-311+G(d,p) opt=(ModRedundant) SCF=(Tight,XQC) NoSymm scrf=(smd,solvent=water)

mol_013_Z scan pt3 (R0+0.15A) rigid O-N displacement then constrained opt  [oxime: C8=N9-O10]

1 1
C        0.39501900     -2.45520800      0.59116800
C       -0.49074400     -1.30732600      0.19361400
C       -1.85205300     -1.54555500      0.00343800
C       -2.75652900     -0.52019700     -0.26120000
C       -2.34105400      0.80503800     -0.29853200
C       -0.99644500      1.07512600     -0.10622500
C       -0.07322700      0.03100000      0.07865000
C        1.24638900      0.67205100      0.17663800
N        2.44574100      0.34485200     -0.12731900
O        2.44170523     -1.20225229     -0.72788883
C        1.04202900      2.11144700      0.56878200
C       -0.33487600      2.42423500     -0.04373800
H        1.20046000     -2.13412800      1.25349900
H       -0.19823900     -3.20910500      1.11174000
H        0.84604000     -2.93132100     -0.28260800
H       -2.21765000     -2.56273100      0.09496000
H       -3.80464700     -0.76114000     -0.40071500
H       -3.05094100      1.60972300     -0.45139200
H        2.66951223     -1.14025229     -1.67387383
H        3.15654623     -1.69657729     -0.28653183
H        0.98674700      2.15291100      1.66056300
H        1.84786800      2.75863200      0.22872000
H       -0.21659700      2.83939300     -1.04867500
H       -0.90763000      3.13663900      0.55027800

B 9 10 F

--Link1--
%chk=mol_013_Z_scan_pt3.chk
%nprocshared=8
%mem=16GB
#p wB97XD/6-311+G(d,p) Geom=Check Guess=Read Stable=Opt Pop=NBO7Read Density=Current scrf=(smd,solvent=water)

mol_013_Z SP+NBO7/CMO after constrained opt at R0+0.15A  [oxime: C8=N9-O10]

1 1

$NBO CMO PRINT=2 E2PERT=0.05 BNDIDX $END

--Link1--
%chk=mol_013_Z_scan_pt4.chk
%nprocshared=8
%mem=16GB
#p wB97XD/6-311+G(d,p) opt=(ModRedundant) SCF=(Tight,XQC) NoSymm scrf=(smd,solvent=water)

mol_013_Z scan pt4 (R0+0.20A) rigid O-N displacement then constrained opt  [oxime: C8=N9-O10]

1 1
C        0.39501900     -2.45520800      0.59116800
C       -0.49074400     -1.30732600      0.19361400
C       -1.85205300     -1.54555500      0.00343800
C       -2.75652900     -0.52019700     -0.26120000
C       -2.34105400      0.80503800     -0.29853200
C       -0.99644500      1.07512600     -0.10622500
C       -0.07322700      0.03100000      0.07865000
C        1.24638900      0.67205100      0.17663800
N        2.44574100      0.34485200     -0.12731900
O        2.44158364     -1.24886339     -0.74598278
C        1.04202900      2.11144700      0.56878200
C       -0.33487600      2.42423500     -0.04373800
H        1.20046000     -2.13412800      1.25349900
H       -0.19823900     -3.20910500      1.11174000
H        0.84604000     -2.93132100     -0.28260800
H       -2.21765000     -2.56273100      0.09496000
H       -3.80464700     -0.76114000     -0.40071500
H       -3.05094100      1.60972300     -0.45139200
H        2.66939064     -1.18686339     -1.69196778
H        3.15642464     -1.74318839     -0.30462578
H        0.98674700      2.15291100      1.66056300
H        1.84786800      2.75863200      0.22872000
H       -0.21659700      2.83939300     -1.04867500
H       -0.90763000      3.13663900      0.55027800

B 9 10 F

--Link1--
%chk=mol_013_Z_scan_pt4.chk
%nprocshared=8
%mem=16GB
#p wB97XD/6-311+G(d,p) Geom=Check Guess=Read Stable=Opt Pop=NBO7Read Density=Current scrf=(smd,solvent=water)

mol_013_Z SP+NBO7/CMO after constrained opt at R0+0.20A  [oxime: C8=N9-O10]

1 1

$NBO CMO PRINT=2 E2PERT=0.05 BNDIDX $END

--Link1--
%chk=mol_013_Z_scan_pt5.chk
%nprocshared=8
%mem=16GB
#p wB97XD/6-311+G(d,p) opt=(ModRedundant) SCF=(Tight,XQC) NoSymm scrf=(smd,solvent=water)

mol_013_Z scan pt5 (R0+0.25A) rigid O-N displacement then constrained opt  [oxime: C8=N9-O10]

1 1
C        0.39501900     -2.45520800      0.59116800
C       -0.49074400     -1.30732600      0.19361400
C       -1.85205300     -1.54555500      0.00343800
C       -2.75652900     -0.52019700     -0.26120000
C       -2.34105400      0.80503800     -0.29853200
C       -0.99644500      1.07512600     -0.10622500
C       -0.07322700      0.03100000      0.07865000
C        1.24638900      0.67205100      0.17663800
N        2.44574100      0.34485200     -0.12731900
O        2.44146205     -1.29547449     -0.76407672
C        1.04202900      2.11144700      0.56878200
C       -0.33487600      2.42423500     -0.04373800
H        1.20046000     -2.13412800      1.25349900
H       -0.19823900     -3.20910500      1.11174000
H        0.84604000     -2.93132100     -0.28260800
H       -2.21765000     -2.56273100      0.09496000
H       -3.80464700     -0.76114000     -0.40071500
H       -3.05094100      1.60972300     -0.45139200
H        2.66926905     -1.23347449     -1.71006172
H        3.15630305     -1.78979949     -0.32271972
H        0.98674700      2.15291100      1.66056300
H        1.84786800      2.75863200      0.22872000
H       -0.21659700      2.83939300     -1.04867500
H       -0.90763000      3.13663900      0.55027800

B 9 10 F

--Link1--
%chk=mol_013_Z_scan_pt5.chk
%nprocshared=8
%mem=16GB
#p wB97XD/6-311+G(d,p) Geom=Check Guess=Read Stable=Opt Pop=NBO7Read Density=Current scrf=(smd,solvent=water)

mol_013_Z SP+NBO7/CMO after constrained opt at R0+0.25A  [oxime: C8=N9-O10]

1 1

$NBO CMO PRINT=2 E2PERT=0.05 BNDIDX $END

--Link1--
%chk=mol_013_Z_scan_pt6.chk
%nprocshared=8
%mem=16GB
#p wB97XD/6-311+G(d,p) opt=(ModRedundant) SCF=(Tight,XQC) NoSymm scrf=(smd,solvent=water)

mol_013_Z scan pt6 (R0+0.30A) rigid O-N displacement then constrained opt  [oxime: C8=N9-O10]

1 1
C        0.39501900     -2.45520800      0.59116800
C       -0.49074400     -1.30732600      0.19361400
C       -1.85205300     -1.54555500      0.00343800
C       -2.75652900     -0.52019700     -0.26120000
C       -2.34105400      0.80503800     -0.29853200
C       -0.99644500      1.07512600     -0.10622500
C       -0.07322700      0.03100000      0.07865000
C        1.24638900      0.67205100      0.17663800
N        2.44574100      0.34485200     -0.12731900
O        2.44134046     -1.34208558     -0.78217067
C        1.04202900      2.11144700      0.56878200
C       -0.33487600      2.42423500     -0.04373800
H        1.20046000     -2.13412800      1.25349900
H       -0.19823900     -3.20910500      1.11174000
H        0.84604000     -2.93132100     -0.28260800
H       -2.21765000     -2.56273100      0.09496000
H       -3.80464700     -0.76114000     -0.40071500
H       -3.05094100      1.60972300     -0.45139200
H        2.66914746     -1.28008558     -1.72815567
H        3.15618146     -1.83641058     -0.34081367
H        0.98674700      2.15291100      1.66056300
H        1.84786800      2.75863200      0.22872000
H       -0.21659700      2.83939300     -1.04867500
H       -0.90763000      3.13663900      0.55027800

B 9 10 F

--Link1--
%chk=mol_013_Z_scan_pt6.chk
%nprocshared=8
%mem=16GB
#p wB97XD/6-311+G(d,p) Geom=Check Guess=Read Stable=Opt Pop=NBO7Read Density=Current scrf=(smd,solvent=water)

mol_013_Z SP+NBO7/CMO after constrained opt at R0+0.30A  [oxime: C8=N9-O10]

1 1

$NBO CMO PRINT=2 E2PERT=0.05 BNDIDX $END


