%chk=mol_013_Z_opt.chk
%nprocshared=8
%mem=16GB
#p wB97XD/6-311+G(d,p) opt scrf=(smd,solvent=water)

mol_013_Z opt  [oxime: C8=N9-O10]

1 1
C       -2.36250000      0.05370000     -0.89700000
C       -1.23310000     -0.58040000     -0.13540000
C       -1.43770000     -1.82370000      0.44890000
C       -0.40150000     -2.54000000      1.03600000
C        0.89950000     -2.06050000      1.04060000
C        1.14640000     -0.82940000      0.46910000
C        0.07440000     -0.06160000     -0.04270000
C        0.64320000      1.21570000     -0.44850000
N        0.30460000      2.43350000     -0.59380000
O       -1.29030000      2.63460000     -0.11270000
C        2.15020000      1.04820000     -0.61330000
C        2.46440000     -0.13870000      0.31250000
H       -2.00270000      0.68860000     -1.70350000
H       -2.99030000     -0.71620000     -1.33620000
H       -3.00860000      0.65350000     -0.25580000
H       -2.42760000     -2.25700000      0.42000000
H       -0.61200000     -3.50140000      1.48110000
H        1.70110000     -2.64360000      1.47300000
H       -1.24660000      2.76610000      0.85550000
H       -1.48540000      3.49450000     -0.53200000
H        2.33070000      0.79020000     -1.65580000
H        2.71820000      1.94690000     -0.39690000
H        2.82820000      0.21550000      1.27820000
H        3.23730000     -0.78850000     -0.09130000


