21
mol_014_Z_opt
O       -2.107100      2.367300      0.054400
N       -2.448200      0.865300     -0.257600
C       -1.408200      0.121000     -0.196500
C       -1.745100     -1.352500     -0.200900
C       -0.499300     -2.025400      0.404800
C        0.572600     -0.992000      0.278200
C        1.934600     -1.123500      0.473000
C        2.756300     -0.025200      0.263500
C        2.253100      1.207400     -0.149500
C        0.898800      1.319700     -0.329100
F        0.407600      2.514100     -0.806500
C        0.031300      0.258000     -0.086900
H       -1.333400      2.640000     -0.509200
H       -2.923100      2.809300     -0.251200
H       -1.888000     -1.652700     -1.239200
H       -2.671300     -1.566600      0.324000
H       -0.243700     -2.959300     -0.090900
H       -0.669300     -2.258800      1.457600
H        2.357800     -2.069800      0.776600
H        3.819700     -0.123900      0.416600
H        2.905000      2.047900     -0.331100
