%chk=mol_qdemo3_E_opt.chk
%nprocshared=8
%mem=16GB
#p wB97XD/6-311+G(d,p) opt scrf=(smd,solvent=water)

mol_qdemo3_E opt  [oxime: C3=N2-O1]

1 1
O        3.01170000      1.81550000     -0.66340000
N        1.36040000      1.79110000     -0.67200000
C        1.00300000      0.64400000     -0.23530000
C        1.80600000     -0.54170000      0.22760000
C        0.76700000     -1.59170000      0.64810000
C       -0.55910000     -0.95270000      0.36790000
C       -1.82460000     -1.47770000      0.55030000
C       -2.92610000     -0.69790000      0.22340000
C       -2.78090000      0.59580000     -0.28140000
C       -1.52480000      1.13930000     -0.47120000
C       -0.41990000      0.34890000     -0.14130000
H        3.20750000      2.05380000     -1.59030000
H        3.19280000      2.60570000     -0.11820000
H        2.46390000     -0.23630000      1.03880000
H        2.44420000     -0.87140000     -0.59030000
H        0.86370000     -1.84510000      1.70120000
H        0.88610000     -2.51710000      0.09020000
H       -1.96290000     -2.47650000      0.93980000
H       -3.92000000     -1.10100000      0.36260000
H       -3.66190000      1.17250000     -0.52410000
H       -1.42620000      2.14230000     -0.86240000


