%chk=mol_011_Z.chk
%nprocshared=8
%mem=16GB
#p wB97XD/6-311+G(d,p) sp pop=nboread

mol_011_Z  [oxime: C3=N2-O1]

1 1
O       -0.48590000      2.99510000     -1.01470000
N       -1.67570000      1.83260000     -0.71710000
C       -1.12940000      0.73700000     -0.37360000
C       -2.19250000     -0.33110000     -0.12160000
C       -1.43510000     -1.46640000      0.58710000
C        0.00330000     -1.10630000      0.43650000
C        1.10960000     -1.86470000      0.78540000
C        2.37740000     -1.35350000      0.58670000
C        2.54160000     -0.08570000      0.03260000
F        3.78040000      0.37990000     -0.15370000
C        1.46760000      0.70010000     -0.33010000
C        0.18820000      0.17700000     -0.11250000
H       -0.87430000      3.43150000     -1.79820000
H       -0.59680000      3.60630000     -0.26000000
H       -2.57930000     -0.64740000     -1.08700000
H       -3.02810000      0.06510000      0.44540000
H       -1.66410000     -2.44030000      0.16070000
H       -1.70740000     -1.51300000      1.64130000
H        0.98830000     -2.85070000      1.21160000
H        3.25010000     -1.92860000      0.85590000
H        1.66220000      1.66310000     -0.77450000
$NBO E2PERT BNDIDX NBOSUM $END


