%chk=mol_020_Z_scan_pt1.chk
%nprocshared=10
%mem=16GB
#p wB97XD/6-311+G(d,p) opt=(ModRedundant,CalcFC,MaxCycles=300) SCF=(Tight,XQC) NoSymm scrf=(smd,solvent=water)

mol_020_Z scan pt1 (R0+0.05A) rigid O-N displacement then constrained opt  [oxime: C11=N12-O13]

1 1
C        4.07530500      0.08298100      0.09609500
C        2.57917100      0.13938400     -0.01371800
C        1.92965800      1.34838800     -0.28792700
C        0.55247700      1.41275800     -0.34612200
C       -0.22805000      0.26068600     -0.14680700
C        0.41083900     -0.97249800      0.07890800
C        1.80261600     -1.00013200      0.15872800
C       -0.34392500     -2.27665600      0.18674100
C       -1.84959000     -2.10723300      0.33148700
C       -2.35287600     -1.03348600     -0.63331700
C       -1.69540800      0.26250700     -0.24671900
N       -2.56888600      1.16827300     -0.00242400
O       -1.88416338      2.48203696      0.50649723
H        4.39552300      0.44415400      1.07867300
H        4.44430800     -0.93723800     -0.02295100
H        4.54733200      0.71974100     -0.65561200
H        2.51401200      2.24586700     -0.46030100
H        0.08288700      2.35630700     -0.58097000
H        2.29130000     -1.95160800      0.34766200
H       -0.13240200     -2.84562400     -0.72655300
H        0.06233000     -2.86078800      1.01568200
H       -2.35767900     -3.04965500      0.12027700
H       -2.10658800     -1.81909100      1.35586300
H       -3.43719300     -0.93262500     -0.59908900
H       -2.05311300     -1.27145800     -1.65908700
H       -1.71081138      2.40229296      1.46415623
H       -2.54713838      3.18467296      0.38558323

B 12 13 F

--Link1--
%chk=mol_020_Z_scan_pt1.chk
%nprocshared=10
%mem=16GB
#p wB97XD/6-311+G(d,p) Geom=Check Guess=Read Stable=Opt Pop=NBO7Read Density=Current scrf=(smd,solvent=water)

mol_020_Z SP+NBO7/CMO after constrained opt at R0+0.05A  [oxime: C11=N12-O13]

1 1

$NBO CMO PRINT=2 E2PERT=0.05 BNDIDX $END

--Link1--
%chk=mol_020_Z_scan_pt2.chk
%nprocshared=10
%mem=16GB
#p wB97XD/6-311+G(d,p) opt=(ModRedundant,CalcFC,MaxCycles=300) SCF=(Tight,XQC) NoSymm scrf=(smd,solvent=water)

mol_020_Z scan pt2 (R0+0.10A) rigid O-N displacement then constrained opt  [oxime: C11=N12-O13]

1 1
C        4.07530500      0.08298100      0.09609500
C        2.57917100      0.13938400     -0.01371800
C        1.92965800      1.34838800     -0.28792700
C        0.55247700      1.41275800     -0.34612200
C       -0.22805000      0.26068600     -0.14680700
C        0.41083900     -0.97249800      0.07890800
C        1.80261600     -1.00013200      0.15872800
C       -0.34392500     -2.27665600      0.18674100
C       -1.84959000     -2.10723300      0.33148700
C       -2.35287600     -1.03348600     -0.63331700
C       -1.69540800      0.26250700     -0.24671900
N       -2.56888600      1.16827300     -0.00242400
O       -1.86230775      2.52397092      0.52274146
H        4.39552300      0.44415400      1.07867300
H        4.44430800     -0.93723800     -0.02295100
H        4.54733200      0.71974100     -0.65561200
H        2.51401200      2.24586700     -0.46030100
H        0.08288700      2.35630700     -0.58097000
H        2.29130000     -1.95160800      0.34766200
H       -0.13240200     -2.84562400     -0.72655300
H        0.06233000     -2.86078800      1.01568200
H       -2.35767900     -3.04965500      0.12027700
H       -2.10658800     -1.81909100      1.35586300
H       -3.43719300     -0.93262500     -0.59908900
H       -2.05311300     -1.27145800     -1.65908700
H       -1.68895575      2.44422692      1.48040046
H       -2.52528275      3.22660692      0.40182746

B 12 13 F

--Link1--
%chk=mol_020_Z_scan_pt2.chk
%nprocshared=10
%mem=16GB
#p wB97XD/6-311+G(d,p) Geom=Check Guess=Read Stable=Opt Pop=NBO7Read Density=Current scrf=(smd,solvent=water)

mol_020_Z SP+NBO7/CMO after constrained opt at R0+0.10A  [oxime: C11=N12-O13]

1 1

$NBO CMO PRINT=2 E2PERT=0.05 BNDIDX $END

--Link1--
%chk=mol_020_Z_scan_pt3.chk
%nprocshared=10
%mem=16GB
#p wB97XD/6-311+G(d,p) opt=(ModRedundant,CalcFC,MaxCycles=300) SCF=(Tight,XQC) NoSymm scrf=(smd,solvent=water)

mol_020_Z scan pt3 (R0+0.15A) rigid O-N displacement then constrained opt  [oxime: C11=N12-O13]

1 1
C        4.07530500      0.08298100      0.09609500
C        2.57917100      0.13938400     -0.01371800
C        1.92965800      1.34838800     -0.28792700
C        0.55247700      1.41275800     -0.34612200
C       -0.22805000      0.26068600     -0.14680700
C        0.41083900     -0.97249800      0.07890800
C        1.80261600     -1.00013200      0.15872800
C       -0.34392500     -2.27665600      0.18674100
C       -1.84959000     -2.10723300      0.33148700
C       -2.35287600     -1.03348600     -0.63331700
C       -1.69540800      0.26250700     -0.24671900
N       -2.56888600      1.16827300     -0.00242400
O       -1.84045213      2.56590487      0.53898568
H        4.39552300      0.44415400      1.07867300
H        4.44430800     -0.93723800     -0.02295100
H        4.54733200      0.71974100     -0.65561200
H        2.51401200      2.24586700     -0.46030100
H        0.08288700      2.35630700     -0.58097000
H        2.29130000     -1.95160800      0.34766200
H       -0.13240200     -2.84562400     -0.72655300
H        0.06233000     -2.86078800      1.01568200
H       -2.35767900     -3.04965500      0.12027700
H       -2.10658800     -1.81909100      1.35586300
H       -3.43719300     -0.93262500     -0.59908900
H       -2.05311300     -1.27145800     -1.65908700
H       -1.66710013      2.48616087      1.49664468
H       -2.50342713      3.26854087      0.41807168

B 12 13 F

--Link1--
%chk=mol_020_Z_scan_pt3.chk
%nprocshared=10
%mem=16GB
#p wB97XD/6-311+G(d,p) Geom=Check Guess=Read Stable=Opt Pop=NBO7Read Density=Current scrf=(smd,solvent=water)

mol_020_Z SP+NBO7/CMO after constrained opt at R0+0.15A  [oxime: C11=N12-O13]

1 1

$NBO CMO PRINT=2 E2PERT=0.05 BNDIDX $END

--Link1--
%chk=mol_020_Z_scan_pt4.chk
%nprocshared=10
%mem=16GB
#p wB97XD/6-311+G(d,p) opt=(ModRedundant,CalcFC,MaxCycles=300) SCF=(Tight,XQC) NoSymm scrf=(smd,solvent=water)

mol_020_Z scan pt4 (R0+0.20A) rigid O-N displacement then constrained opt  [oxime: C11=N12-O13]

1 1
C        4.07530500      0.08298100      0.09609500
C        2.57917100      0.13938400     -0.01371800
C        1.92965800      1.34838800     -0.28792700
C        0.55247700      1.41275800     -0.34612200
C       -0.22805000      0.26068600     -0.14680700
C        0.41083900     -0.97249800      0.07890800
C        1.80261600     -1.00013200      0.15872800
C       -0.34392500     -2.27665600      0.18674100
C       -1.84959000     -2.10723300      0.33148700
C       -2.35287600     -1.03348600     -0.63331700
C       -1.69540800      0.26250700     -0.24671900
N       -2.56888600      1.16827300     -0.00242400
O       -1.81859651      2.60783883      0.55522991
H        4.39552300      0.44415400      1.07867300
H        4.44430800     -0.93723800     -0.02295100
H        4.54733200      0.71974100     -0.65561200
H        2.51401200      2.24586700     -0.46030100
H        0.08288700      2.35630700     -0.58097000
H        2.29130000     -1.95160800      0.34766200
H       -0.13240200     -2.84562400     -0.72655300
H        0.06233000     -2.86078800      1.01568200
H       -2.35767900     -3.04965500      0.12027700
H       -2.10658800     -1.81909100      1.35586300
H       -3.43719300     -0.93262500     -0.59908900
H       -2.05311300     -1.27145800     -1.65908700
H       -1.64524451      2.52809483      1.51288891
H       -2.48157151      3.31047483      0.43431591

B 12 13 F

--Link1--
%chk=mol_020_Z_scan_pt4.chk
%nprocshared=10
%mem=16GB
#p wB97XD/6-311+G(d,p) Geom=Check Guess=Read Stable=Opt Pop=NBO7Read Density=Current scrf=(smd,solvent=water)

mol_020_Z SP+NBO7/CMO after constrained opt at R0+0.20A  [oxime: C11=N12-O13]

1 1

$NBO CMO PRINT=2 E2PERT=0.05 BNDIDX $END

--Link1--
%chk=mol_020_Z_scan_pt5.chk
%nprocshared=10
%mem=16GB
#p wB97XD/6-311+G(d,p) opt=(ModRedundant,CalcFC,MaxCycles=300) SCF=(Tight,XQC) NoSymm scrf=(smd,solvent=water)

mol_020_Z scan pt5 (R0+0.25A) rigid O-N displacement then constrained opt  [oxime: C11=N12-O13]

1 1
C        4.07530500      0.08298100      0.09609500
C        2.57917100      0.13938400     -0.01371800
C        1.92965800      1.34838800     -0.28792700
C        0.55247700      1.41275800     -0.34612200
C       -0.22805000      0.26068600     -0.14680700
C        0.41083900     -0.97249800      0.07890800
C        1.80261600     -1.00013200      0.15872800
C       -0.34392500     -2.27665600      0.18674100
C       -1.84959000     -2.10723300      0.33148700
C       -2.35287600     -1.03348600     -0.63331700
C       -1.69540800      0.26250700     -0.24671900
N       -2.56888600      1.16827300     -0.00242400
O       -1.79674089      2.64977279      0.57147414
H        4.39552300      0.44415400      1.07867300
H        4.44430800     -0.93723800     -0.02295100
H        4.54733200      0.71974100     -0.65561200
H        2.51401200      2.24586700     -0.46030100
H        0.08288700      2.35630700     -0.58097000
H        2.29130000     -1.95160800      0.34766200
H       -0.13240200     -2.84562400     -0.72655300
H        0.06233000     -2.86078800      1.01568200
H       -2.35767900     -3.04965500      0.12027700
H       -2.10658800     -1.81909100      1.35586300
H       -3.43719300     -0.93262500     -0.59908900
H       -2.05311300     -1.27145800     -1.65908700
H       -1.62338889      2.57002879      1.52913314
H       -2.45971589      3.35240879      0.45056014

B 12 13 F

--Link1--
%chk=mol_020_Z_scan_pt5.chk
%nprocshared=10
%mem=16GB
#p wB97XD/6-311+G(d,p) Geom=Check Guess=Read Stable=Opt Pop=NBO7Read Density=Current scrf=(smd,solvent=water)

mol_020_Z SP+NBO7/CMO after constrained opt at R0+0.25A  [oxime: C11=N12-O13]

1 1

$NBO CMO PRINT=2 E2PERT=0.05 BNDIDX $END

--Link1--
%chk=mol_020_Z_scan_pt6.chk
%nprocshared=10
%mem=16GB
#p wB97XD/6-311+G(d,p) opt=(ModRedundant,CalcFC,MaxCycles=300) SCF=(Tight,XQC) NoSymm scrf=(smd,solvent=water)

mol_020_Z scan pt6 (R0+0.30A) rigid O-N displacement then constrained opt  [oxime: C11=N12-O13]

1 1
C        4.07530500      0.08298100      0.09609500
C        2.57917100      0.13938400     -0.01371800
C        1.92965800      1.34838800     -0.28792700
C        0.55247700      1.41275800     -0.34612200
C       -0.22805000      0.26068600     -0.14680700
C        0.41083900     -0.97249800      0.07890800
C        1.80261600     -1.00013200      0.15872800
C       -0.34392500     -2.27665600      0.18674100
C       -1.84959000     -2.10723300      0.33148700
C       -2.35287600     -1.03348600     -0.63331700
C       -1.69540800      0.26250700     -0.24671900
N       -2.56888600      1.16827300     -0.00242400
O       -1.77488526      2.69170675      0.58771837
H        4.39552300      0.44415400      1.07867300
H        4.44430800     -0.93723800     -0.02295100
H        4.54733200      0.71974100     -0.65561200
H        2.51401200      2.24586700     -0.46030100
H        0.08288700      2.35630700     -0.58097000
H        2.29130000     -1.95160800      0.34766200
H       -0.13240200     -2.84562400     -0.72655300
H        0.06233000     -2.86078800      1.01568200
H       -2.35767900     -3.04965500      0.12027700
H       -2.10658800     -1.81909100      1.35586300
H       -3.43719300     -0.93262500     -0.59908900
H       -2.05311300     -1.27145800     -1.65908700
H       -1.60153326      2.61196275      1.54537737
H       -2.43786026      3.39434275      0.46680437

B 12 13 F

--Link1--
%chk=mol_020_Z_scan_pt6.chk
%nprocshared=10
%mem=16GB
#p wB97XD/6-311+G(d,p) Geom=Check Guess=Read Stable=Opt Pop=NBO7Read Density=Current scrf=(smd,solvent=water)

mol_020_Z SP+NBO7/CMO after constrained opt at R0+0.30A  [oxime: C11=N12-O13]

1 1

$NBO CMO PRINT=2 E2PERT=0.05 BNDIDX $END


