25
mol_010_E_opt
C        3.863200      0.925200     -0.023500
O        3.371600     -0.354300     -0.425300
C        2.049500     -0.578400     -0.389500
C        1.639300     -1.861300     -0.824800
C        0.309300     -2.223900     -0.840400
C       -0.654400     -1.314000     -0.419300
C       -0.236300     -0.050800      0.009200
C        1.097700      0.346700      0.036800
C       -1.416900      0.719900      0.396200
N       -1.239900      1.904100      0.817400
O       -2.833500      2.496000      1.170900
C       -2.651600     -0.118200      0.193400
C       -2.140800     -1.468300     -0.343300
H        4.938600      0.877500     -0.140800
H        3.617900      1.126000      1.019200
H        3.460200      1.712600     -0.660200
H        2.407100     -2.549900     -1.147000
H        0.030500     -3.211300     -1.180300
H        1.372500      1.333600      0.377000
H       -2.691000      2.767700      2.097900
H       -2.810700      3.314100      0.638400
H       -3.318700      0.392900     -0.495700
H       -3.184000     -0.204700      1.136700
H       -2.416600     -2.287800      0.316800
H       -2.563200     -1.693400     -1.320000
