%chk=mol_025_E_scan_pt1.chk
%nprocshared=8
%mem=16GB
#p wB97XD/6-311+G(d,p) opt=(ModRedundant) SCF=(Tight,XQC) NoSymm scrf=(smd,solvent=water)

mol_025_E scan pt1 (R0+0.05A) rigid O-N displacement then constrained opt  [oxime: C9=N10-O11]

1 1
C        4.47522800     -0.73061100      0.14517600
O        3.14398700     -1.23516200      0.17469800
C        2.12119700     -0.34630600      0.02797300
C        2.29552000      1.02275100     -0.17687400
C        1.18233900      1.84577700     -0.29004900
C       -0.11309800      1.34627900     -0.21409800
C       -0.27098200     -0.03695500     -0.02832200
C        0.83839000     -0.87362700      0.09967100
C       -1.64402600     -0.58497100      0.01008600
N       -1.72511900     -1.84317100     -0.22946600
O       -3.21223973     -2.27287091     -0.12981175
C       -2.81348000      0.32414100      0.24972500
C       -2.40592500      1.73934400      0.63729100
C       -1.31448700      2.24939200     -0.29550900
H        5.12279600     -1.59367700      0.28830300
H        4.64045200     -0.01211200      0.95322200
H        4.69798400     -0.26357700     -0.81849900
H        3.28440400      1.45837200     -0.23295800
H        1.32872500      2.91146100     -0.43013600
H        0.71893800     -1.93646100      0.26976900
H       -3.66431073     -2.11799291     -0.98271275
H       -3.19918773     -3.23508391      0.01999125
H       -3.45580200     -0.13322600      1.00491200
H       -3.39126600      0.34278300     -0.68296900
H       -2.04055900      1.75184100      1.66870100
H       -3.28651500      2.38239300      0.59228000
H       -1.02241700      3.26875500     -0.03686100
H       -1.69478700      2.27319700     -1.32417000

B 10 11 F

--Link1--
%chk=mol_025_E_scan_pt1.chk
%nprocshared=8
%mem=16GB
#p wB97XD/6-311+G(d,p) Geom=Check Guess=Read Stable=Opt Pop=NBO7Read Density=Current scrf=(smd,solvent=water)

mol_025_E SP+NBO7/CMO after constrained opt at R0+0.05A  [oxime: C9=N10-O11]

1 1

$NBO CMO PRINT=2 E2PERT=0.05 BNDIDX $END

--Link1--
%chk=mol_025_E_scan_pt2.chk
%nprocshared=8
%mem=16GB
#p wB97XD/6-311+G(d,p) opt=(ModRedundant) SCF=(Tight,XQC) NoSymm scrf=(smd,solvent=water)

mol_025_E scan pt2 (R0+0.10A) rigid O-N displacement then constrained opt  [oxime: C9=N10-O11]

1 1
C        4.47522800     -0.73061100      0.14517600
O        3.14398700     -1.23516200      0.17469800
C        2.12119700     -0.34630600      0.02797300
C        2.29552000      1.02275100     -0.17687400
C        1.18233900      1.84577700     -0.29004900
C       -0.11309800      1.34627900     -0.21409800
C       -0.27098200     -0.03695500     -0.02832200
C        0.83839000     -0.87362700      0.09967100
C       -1.64402600     -0.58497100      0.01008600
N       -1.72511900     -1.84317100     -0.22946600
O       -3.26017545     -2.28672182     -0.12659951
C       -2.81348000      0.32414100      0.24972500
C       -2.40592500      1.73934400      0.63729100
C       -1.31448700      2.24939200     -0.29550900
H        5.12279600     -1.59367700      0.28830300
H        4.64045200     -0.01211200      0.95322200
H        4.69798400     -0.26357700     -0.81849900
H        3.28440400      1.45837200     -0.23295800
H        1.32872500      2.91146100     -0.43013600
H        0.71893800     -1.93646100      0.26976900
H       -3.71224645     -2.13184382     -0.97950051
H       -3.24712345     -3.24893482      0.02320349
H       -3.45580200     -0.13322600      1.00491200
H       -3.39126600      0.34278300     -0.68296900
H       -2.04055900      1.75184100      1.66870100
H       -3.28651500      2.38239300      0.59228000
H       -1.02241700      3.26875500     -0.03686100
H       -1.69478700      2.27319700     -1.32417000

B 10 11 F

--Link1--
%chk=mol_025_E_scan_pt2.chk
%nprocshared=8
%mem=16GB
#p wB97XD/6-311+G(d,p) Geom=Check Guess=Read Stable=Opt Pop=NBO7Read Density=Current scrf=(smd,solvent=water)

mol_025_E SP+NBO7/CMO after constrained opt at R0+0.10A  [oxime: C9=N10-O11]

1 1

$NBO CMO PRINT=2 E2PERT=0.05 BNDIDX $END

--Link1--
%chk=mol_025_E_scan_pt3.chk
%nprocshared=8
%mem=16GB
#p wB97XD/6-311+G(d,p) opt=(ModRedundant) SCF=(Tight,XQC) NoSymm scrf=(smd,solvent=water)

mol_025_E scan pt3 (R0+0.15A) rigid O-N displacement then constrained opt  [oxime: C9=N10-O11]

1 1
C        4.47522800     -0.73061100      0.14517600
O        3.14398700     -1.23516200      0.17469800
C        2.12119700     -0.34630600      0.02797300
C        2.29552000      1.02275100     -0.17687400
C        1.18233900      1.84577700     -0.29004900
C       -0.11309800      1.34627900     -0.21409800
C       -0.27098200     -0.03695500     -0.02832200
C        0.83839000     -0.87362700      0.09967100
C       -1.64402600     -0.58497100      0.01008600
N       -1.72511900     -1.84317100     -0.22946600
O       -3.30811118     -2.30057273     -0.12338726
C       -2.81348000      0.32414100      0.24972500
C       -2.40592500      1.73934400      0.63729100
C       -1.31448700      2.24939200     -0.29550900
H        5.12279600     -1.59367700      0.28830300
H        4.64045200     -0.01211200      0.95322200
H        4.69798400     -0.26357700     -0.81849900
H        3.28440400      1.45837200     -0.23295800
H        1.32872500      2.91146100     -0.43013600
H        0.71893800     -1.93646100      0.26976900
H       -3.76018218     -2.14569473     -0.97628826
H       -3.29505918     -3.26278573      0.02641574
H       -3.45580200     -0.13322600      1.00491200
H       -3.39126600      0.34278300     -0.68296900
H       -2.04055900      1.75184100      1.66870100
H       -3.28651500      2.38239300      0.59228000
H       -1.02241700      3.26875500     -0.03686100
H       -1.69478700      2.27319700     -1.32417000

B 10 11 F

--Link1--
%chk=mol_025_E_scan_pt3.chk
%nprocshared=8
%mem=16GB
#p wB97XD/6-311+G(d,p) Geom=Check Guess=Read Stable=Opt Pop=NBO7Read Density=Current scrf=(smd,solvent=water)

mol_025_E SP+NBO7/CMO after constrained opt at R0+0.15A  [oxime: C9=N10-O11]

1 1

$NBO CMO PRINT=2 E2PERT=0.05 BNDIDX $END

--Link1--
%chk=mol_025_E_scan_pt4.chk
%nprocshared=8
%mem=16GB
#p wB97XD/6-311+G(d,p) opt=(ModRedundant) SCF=(Tight,XQC) NoSymm scrf=(smd,solvent=water)

mol_025_E scan pt4 (R0+0.20A) rigid O-N displacement then constrained opt  [oxime: C9=N10-O11]

1 1
C        4.47522800     -0.73061100      0.14517600
O        3.14398700     -1.23516200      0.17469800
C        2.12119700     -0.34630600      0.02797300
C        2.29552000      1.02275100     -0.17687400
C        1.18233900      1.84577700     -0.29004900
C       -0.11309800      1.34627900     -0.21409800
C       -0.27098200     -0.03695500     -0.02832200
C        0.83839000     -0.87362700      0.09967100
C       -1.64402600     -0.58497100      0.01008600
N       -1.72511900     -1.84317100     -0.22946600
O       -3.35604690     -2.31442364     -0.12017501
C       -2.81348000      0.32414100      0.24972500
C       -2.40592500      1.73934400      0.63729100
C       -1.31448700      2.24939200     -0.29550900
H        5.12279600     -1.59367700      0.28830300
H        4.64045200     -0.01211200      0.95322200
H        4.69798400     -0.26357700     -0.81849900
H        3.28440400      1.45837200     -0.23295800
H        1.32872500      2.91146100     -0.43013600
H        0.71893800     -1.93646100      0.26976900
H       -3.80811790     -2.15954564     -0.97307601
H       -3.34299490     -3.27663664      0.02962799
H       -3.45580200     -0.13322600      1.00491200
H       -3.39126600      0.34278300     -0.68296900
H       -2.04055900      1.75184100      1.66870100
H       -3.28651500      2.38239300      0.59228000
H       -1.02241700      3.26875500     -0.03686100
H       -1.69478700      2.27319700     -1.32417000

B 10 11 F

--Link1--
%chk=mol_025_E_scan_pt4.chk
%nprocshared=8
%mem=16GB
#p wB97XD/6-311+G(d,p) Geom=Check Guess=Read Stable=Opt Pop=NBO7Read Density=Current scrf=(smd,solvent=water)

mol_025_E SP+NBO7/CMO after constrained opt at R0+0.20A  [oxime: C9=N10-O11]

1 1

$NBO CMO PRINT=2 E2PERT=0.05 BNDIDX $END

--Link1--
%chk=mol_025_E_scan_pt5.chk
%nprocshared=8
%mem=16GB
#p wB97XD/6-311+G(d,p) opt=(ModRedundant) SCF=(Tight,XQC) NoSymm scrf=(smd,solvent=water)

mol_025_E scan pt5 (R0+0.25A) rigid O-N displacement then constrained opt  [oxime: C9=N10-O11]

1 1
C        4.47522800     -0.73061100      0.14517600
O        3.14398700     -1.23516200      0.17469800
C        2.12119700     -0.34630600      0.02797300
C        2.29552000      1.02275100     -0.17687400
C        1.18233900      1.84577700     -0.29004900
C       -0.11309800      1.34627900     -0.21409800
C       -0.27098200     -0.03695500     -0.02832200
C        0.83839000     -0.87362700      0.09967100
C       -1.64402600     -0.58497100      0.01008600
N       -1.72511900     -1.84317100     -0.22946600
O       -3.40398263     -2.32827455     -0.11696277
C       -2.81348000      0.32414100      0.24972500
C       -2.40592500      1.73934400      0.63729100
C       -1.31448700      2.24939200     -0.29550900
H        5.12279600     -1.59367700      0.28830300
H        4.64045200     -0.01211200      0.95322200
H        4.69798400     -0.26357700     -0.81849900
H        3.28440400      1.45837200     -0.23295800
H        1.32872500      2.91146100     -0.43013600
H        0.71893800     -1.93646100      0.26976900
H       -3.85605363     -2.17339655     -0.96986377
H       -3.39093063     -3.29048755      0.03284023
H       -3.45580200     -0.13322600      1.00491200
H       -3.39126600      0.34278300     -0.68296900
H       -2.04055900      1.75184100      1.66870100
H       -3.28651500      2.38239300      0.59228000
H       -1.02241700      3.26875500     -0.03686100
H       -1.69478700      2.27319700     -1.32417000

B 10 11 F

--Link1--
%chk=mol_025_E_scan_pt5.chk
%nprocshared=8
%mem=16GB
#p wB97XD/6-311+G(d,p) Geom=Check Guess=Read Stable=Opt Pop=NBO7Read Density=Current scrf=(smd,solvent=water)

mol_025_E SP+NBO7/CMO after constrained opt at R0+0.25A  [oxime: C9=N10-O11]

1 1

$NBO CMO PRINT=2 E2PERT=0.05 BNDIDX $END

--Link1--
%chk=mol_025_E_scan_pt6.chk
%nprocshared=8
%mem=16GB
#p wB97XD/6-311+G(d,p) opt=(ModRedundant) SCF=(Tight,XQC) NoSymm scrf=(smd,solvent=water)

mol_025_E scan pt6 (R0+0.30A) rigid O-N displacement then constrained opt  [oxime: C9=N10-O11]

1 1
C        4.47522800     -0.73061100      0.14517600
O        3.14398700     -1.23516200      0.17469800
C        2.12119700     -0.34630600      0.02797300
C        2.29552000      1.02275100     -0.17687400
C        1.18233900      1.84577700     -0.29004900
C       -0.11309800      1.34627900     -0.21409800
C       -0.27098200     -0.03695500     -0.02832200
C        0.83839000     -0.87362700      0.09967100
C       -1.64402600     -0.58497100      0.01008600
N       -1.72511900     -1.84317100     -0.22946600
O       -3.45191835     -2.34212547     -0.11375052
C       -2.81348000      0.32414100      0.24972500
C       -2.40592500      1.73934400      0.63729100
C       -1.31448700      2.24939200     -0.29550900
H        5.12279600     -1.59367700      0.28830300
H        4.64045200     -0.01211200      0.95322200
H        4.69798400     -0.26357700     -0.81849900
H        3.28440400      1.45837200     -0.23295800
H        1.32872500      2.91146100     -0.43013600
H        0.71893800     -1.93646100      0.26976900
H       -3.90398935     -2.18724747     -0.96665152
H       -3.43886635     -3.30433847      0.03605248
H       -3.45580200     -0.13322600      1.00491200
H       -3.39126600      0.34278300     -0.68296900
H       -2.04055900      1.75184100      1.66870100
H       -3.28651500      2.38239300      0.59228000
H       -1.02241700      3.26875500     -0.03686100
H       -1.69478700      2.27319700     -1.32417000

B 10 11 F

--Link1--
%chk=mol_025_E_scan_pt6.chk
%nprocshared=8
%mem=16GB
#p wB97XD/6-311+G(d,p) Geom=Check Guess=Read Stable=Opt Pop=NBO7Read Density=Current scrf=(smd,solvent=water)

mol_025_E SP+NBO7/CMO after constrained opt at R0+0.30A  [oxime: C9=N10-O11]

1 1

$NBO CMO PRINT=2 E2PERT=0.05 BNDIDX $END


