%chk=mol_025_Z.chk
%nprocshared=8
%mem=16GB
#p wB97XD/6-311+G(d,p) sp pop=nboread

mol_025_Z  [oxime: C9=N10-O11]

1 1
C        4.38260000      0.28480000      0.05780000
O        3.12800000      0.84980000      0.45570000
C        1.99860000      0.25080000      0.04750000
C        1.93580000     -0.87110000     -0.78860000
C        0.71280000     -1.43010000     -1.11270000
C       -0.48040000     -0.90480000     -0.63440000
C       -0.41460000      0.25380000      0.16300000
C        0.81290000      0.81500000      0.51650000
C       -1.69820000      0.81120000      0.58820000
N       -2.12280000      1.97400000      0.82300000
O       -0.80860000      3.12900000      0.54660000
C       -2.92620000     -0.11510000      0.80140000
C       -2.64220000     -1.54360000      0.37020000
C       -1.80240000     -1.55890000     -0.89750000
H        4.49250000      0.31120000     -1.02610000
H        5.14250000      0.90640000      0.51640000
H        4.47740000     -0.73840000      0.42090000
H        2.83530000     -1.31910000     -1.18150000
H        0.69290000     -2.30830000     -1.74340000
H        0.89820000      1.64310000      1.20090000
H       -0.69770000      3.09150000     -0.42160000
H       -1.28230000      3.95200000      0.76730000
H       -3.75230000      0.32170000      0.24080000
H       -3.19450000     -0.05670000      1.85640000
H       -2.11310000     -2.07030000      1.16360000
H       -3.58390000     -2.06500000      0.21230000
H       -1.65740000     -2.57900000     -1.24580000
H       -2.33300000     -1.03350000     -1.69720000
$NBO E2PERT BNDIDX NBOSUM $END


