%chk=mol_005_Z.chk
%nprocshared=8
%mem=16GB
#p wB97XD/6-311+G(d,p) sp pop=nboread

mol_005_Z  [oxime: C3=N2-O1]

1 1
O       -2.48770000      2.00840000      0.11190000
N       -2.54030000      0.34540000      0.53950000
C       -1.37210000     -0.13600000      0.41690000
C       -1.34730000     -1.62200000      0.79040000
C        0.03150000     -2.11370000      0.30840000
C        0.77380000     -0.86940000     -0.04570000
C        2.09990000     -0.75790000     -0.41060000
C        2.59280000      0.50470000     -0.71520000
Br       4.39770000      0.68770000     -1.21400000
C        1.79290000      1.64990000     -0.66030000
C        0.47120000      1.53890000     -0.29770000
C       -0.04540000      0.27450000      0.00700000
H       -2.97210000      2.00760000     -0.73560000
H       -3.08840000      2.36800000      0.79180000
H       -1.44830000     -1.70060000      1.86960000
H       -2.18020000     -2.16000000      0.35040000
H        0.55260000     -2.69810000      1.06280000
H       -0.07000000     -2.75610000     -0.56520000
H        2.74650000     -1.62110000     -0.45990000
H        2.21570000      2.61290000     -0.89740000
H       -0.12250000      2.43690000     -0.24720000
$NBO E2PERT BNDIDX NBOSUM $END


