24
mol_009_Z_opt
C        3.427200      0.185100      0.120100
C        2.011800     -0.228800     -0.126800
C        1.720800     -1.429800     -0.795300
C        0.429200     -1.869200     -1.020900
C       -0.633300     -1.101600     -0.575100
C       -0.365000      0.107200      0.090600
C        0.947500      0.539300      0.316800
C       -1.638700      0.708100      0.448200
N       -2.102700      1.786600      0.932300
O       -0.797500      2.830900      1.309800
C       -2.772300     -0.261500      0.106300
C       -2.092100     -1.372100     -0.716400
H        3.871700     -0.420000      0.911700
H        4.042600      0.044700     -0.766600
H        3.501500      1.226100      0.424700
H        2.540500     -2.040400     -1.148700
H        0.254400     -2.802200     -1.538500
H        1.167200      1.454400      0.844800
H       -1.155600      3.257500      2.111100
H       -0.836600      3.481600      0.582800
H       -3.182300     -0.644500      1.036700
H       -3.581500      0.235600     -0.418100
H       -2.394700     -1.320500     -1.762000
H       -2.362000     -2.366400     -0.367400
