24
mol_009_E_opt
C       -3.566800      0.881300      0.437500
C       -2.273900      0.257700      0.022200
C       -2.256400     -0.863600     -0.824900
C       -1.082600     -1.491800     -1.216400
C        0.127700     -1.001100     -0.758200
C        0.119700      0.116600      0.087900
C       -1.059000      0.751400      0.481300
C        1.502000      0.432500      0.427700
N        1.724000      1.426500      1.197600
O        3.381100      1.514800      1.387400
C        2.431200     -0.544000     -0.244900
C        1.515600     -1.493000     -1.033900
H       -3.981800      0.365000      1.304100
H       -4.310500      0.820900     -0.353300
H       -3.441300      1.925000      0.712800
H       -3.198600     -1.252000     -1.189800
H       -1.121800     -2.351800     -1.871100
H       -1.044600      1.615300      1.131400
H        3.458400      1.489600      2.360800
H        3.551400      2.436300      1.111900
H        3.023100     -1.050100      0.514700
H        3.127900      0.005000     -0.874800
H        1.737200     -1.466200     -2.098100
H        1.638300     -2.524100     -0.711900
