27
mol_034_Z_opt
C        2.747700     -1.573700     -0.083600
C        1.891500     -0.368700      0.142400
C        2.476800      0.847100      0.478400
C        1.721600      1.987300      0.707700
C        0.351700      1.937300      0.578800
C       -0.275400      0.728100      0.226900
C        0.493000     -0.443700      0.042900
C       -0.145600     -1.786800     -0.176000
C       -1.629300     -1.772600     -0.505100
C       -2.364900     -0.741400      0.334800
C       -1.725800      0.604300      0.089500
N       -2.654300      1.401600     -0.275500
O       -2.048300      2.888100     -0.623800
H        2.660900     -1.940800     -1.106200
H        2.471500     -2.395900      0.574900
H        3.793500     -1.346800      0.092800
H        3.552600      0.890300      0.581400
H        2.207000      2.905100      1.004800
H       -0.225600      2.816600      0.825700
H        0.396800     -2.326700     -0.950800
H        0.011500     -2.365700      0.738900
H       -2.053400     -2.755900     -0.312800
H       -1.792800     -1.562500     -1.563100
H       -3.427300     -0.704600      0.111400
H       -2.263000     -0.964700      1.397300
H       -1.345200      2.742400     -1.290000
H       -2.825100      3.302300     -1.041500
