27
mol_034_E_opt
C       -3.161300     -1.048500      0.001400
C       -2.131600      0.025700     -0.164500
C       -2.517800      1.317300     -0.515400
C       -1.589900      2.340300     -0.675300
C       -0.250600      2.093600     -0.475600
C        0.168400      0.800800     -0.124700
C       -0.764200     -0.242200      0.018600
C       -0.293200     -1.620800      0.370300
C        1.062600     -1.912100     -0.238400
C        2.091700     -0.907300      0.246700
C        1.602100      0.508300      0.136100
N        2.281500      1.575100      0.268700
O        3.899500      1.101900      0.666600
H       -4.167400     -0.651600     -0.091700
H       -3.045200     -1.828800     -0.751700
H       -3.082500     -1.532900      0.974500
H       -3.569200      1.527000     -0.666100
H       -1.922300      3.329900     -0.953100
H        0.466400      2.895000     -0.596900
H       -0.238800     -1.721600      1.459000
H       -1.003300     -2.372500      0.040500
H        0.992100     -1.873400     -1.325800
H        1.394800     -2.912300      0.028000
H        2.317000     -1.063400      1.302400
H        3.033100     -1.007400     -0.288100
H        4.047200      1.681200      1.438600
H        4.380900      1.499000     -0.084200
