%chk=mol_003_E_step04_scan_pt1.chk
%nprocshared=8
%mem=16GB
#p wB97XD/6-311+G(d,p) opt=(ModRedundant) SCF=(Tight,XQC) NoSymm scrf=(smd,solvent=water)

mol_003_E_step04 scan pt1 (R0+0.04A) rigid O-N displacement then constrained opt  [oxime: C3=N2-O1]

1 1
O        3.80735516     -0.60666681     -0.00093435
N        2.36007400     -1.15525500      0.01041700
C        1.57597300     -0.14206700      0.00495000
C        1.89006800      1.32567100     -0.00272700
C        0.52338300      2.03579600      0.00620500
C       -0.48222900      0.92105800      0.00401600
C       -1.86787200      1.01818900      0.00063500
C       -2.57752200     -0.16613000     -0.00198700
F       -3.92316100     -0.10119300     -0.00634200
C       -1.99086700     -1.42870600     -0.00122500
C       -0.61164100     -1.51619400      0.00236500
C        0.13047100     -0.33322200      0.00503300
H        4.22014316     -0.89203281     -0.83773035
H        4.29000716     -1.04815681      0.72245365
H        2.49990400      1.56874800      0.86945900
H        2.48282800      1.56319800     -0.88830100
H        0.39541200      2.67564500     -0.86890000
H        0.40222700      2.66382300      0.89097700
H       -2.38284800      1.97096300     -0.00066200
H       -2.61719400     -2.31175500     -0.00423900
H       -0.12595000     -2.48417800      0.00204800

B 2 1 F

--Link1--
%chk=mol_003_E_step04_scan_pt1.chk
%nprocshared=8
%mem=16GB
#p wB97XD/6-311+G(d,p) Geom=Check Guess=Read Stable=Opt Pop=NBO7Read Density=Current scrf=(smd,solvent=water)

mol_003_E_step04 SP+NBO7/CMO after constrained opt at R0+0.04A  [oxime: C3=N2-O1]

1 1

$NBO CMO PRINT=2 E2PERT=0.05 BNDIDX $END

--Link1--
%chk=mol_003_E_step04_scan_pt2.chk
%nprocshared=8
%mem=16GB
#p wB97XD/6-311+G(d,p) opt=(ModRedundant) SCF=(Tight,XQC) NoSymm scrf=(smd,solvent=water)

mol_003_E_step04 scan pt2 (R0+0.08A) rigid O-N displacement then constrained opt  [oxime: C3=N2-O1]

1 1
O        3.84475731     -0.59248962     -0.00122771
N        2.36007400     -1.15525500      0.01041700
C        1.57597300     -0.14206700      0.00495000
C        1.89006800      1.32567100     -0.00272700
C        0.52338300      2.03579600      0.00620500
C       -0.48222900      0.92105800      0.00401600
C       -1.86787200      1.01818900      0.00063500
C       -2.57752200     -0.16613000     -0.00198700
F       -3.92316100     -0.10119300     -0.00634200
C       -1.99086700     -1.42870600     -0.00122500
C       -0.61164100     -1.51619400      0.00236500
C        0.13047100     -0.33322200      0.00503300
H        4.25754531     -0.87785562     -0.83802371
H        4.32740931     -1.03397962      0.72216029
H        2.49990400      1.56874800      0.86945900
H        2.48282800      1.56319800     -0.88830100
H        0.39541200      2.67564500     -0.86890000
H        0.40222700      2.66382300      0.89097700
H       -2.38284800      1.97096300     -0.00066200
H       -2.61719400     -2.31175500     -0.00423900
H       -0.12595000     -2.48417800      0.00204800

B 2 1 F

--Link1--
%chk=mol_003_E_step04_scan_pt2.chk
%nprocshared=8
%mem=16GB
#p wB97XD/6-311+G(d,p) Geom=Check Guess=Read Stable=Opt Pop=NBO7Read Density=Current scrf=(smd,solvent=water)

mol_003_E_step04 SP+NBO7/CMO after constrained opt at R0+0.08A  [oxime: C3=N2-O1]

1 1

$NBO CMO PRINT=2 E2PERT=0.05 BNDIDX $END

--Link1--
%chk=mol_003_E_step04_scan_pt3.chk
%nprocshared=8
%mem=16GB
#p wB97XD/6-311+G(d,p) opt=(ModRedundant) SCF=(Tight,XQC) NoSymm scrf=(smd,solvent=water)

mol_003_E_step04 scan pt3 (R0+0.12A) rigid O-N displacement then constrained opt  [oxime: C3=N2-O1]

1 1
O        3.88215947     -0.57831243     -0.00152106
N        2.36007400     -1.15525500      0.01041700
C        1.57597300     -0.14206700      0.00495000
C        1.89006800      1.32567100     -0.00272700
C        0.52338300      2.03579600      0.00620500
C       -0.48222900      0.92105800      0.00401600
C       -1.86787200      1.01818900      0.00063500
C       -2.57752200     -0.16613000     -0.00198700
F       -3.92316100     -0.10119300     -0.00634200
C       -1.99086700     -1.42870600     -0.00122500
C       -0.61164100     -1.51619400      0.00236500
C        0.13047100     -0.33322200      0.00503300
H        4.29494747     -0.86367843     -0.83831706
H        4.36481147     -1.01980243      0.72186694
H        2.49990400      1.56874800      0.86945900
H        2.48282800      1.56319800     -0.88830100
H        0.39541200      2.67564500     -0.86890000
H        0.40222700      2.66382300      0.89097700
H       -2.38284800      1.97096300     -0.00066200
H       -2.61719400     -2.31175500     -0.00423900
H       -0.12595000     -2.48417800      0.00204800

B 2 1 F

--Link1--
%chk=mol_003_E_step04_scan_pt3.chk
%nprocshared=8
%mem=16GB
#p wB97XD/6-311+G(d,p) Geom=Check Guess=Read Stable=Opt Pop=NBO7Read Density=Current scrf=(smd,solvent=water)

mol_003_E_step04 SP+NBO7/CMO after constrained opt at R0+0.12A  [oxime: C3=N2-O1]

1 1

$NBO CMO PRINT=2 E2PERT=0.05 BNDIDX $END

--Link1--
%chk=mol_003_E_step04_scan_pt4.chk
%nprocshared=8
%mem=16GB
#p wB97XD/6-311+G(d,p) opt=(ModRedundant) SCF=(Tight,XQC) NoSymm scrf=(smd,solvent=water)

mol_003_E_step04 scan pt4 (R0+0.16A) rigid O-N displacement then constrained opt  [oxime: C3=N2-O1]

1 1
O        3.91956162     -0.56413524     -0.00181441
N        2.36007400     -1.15525500      0.01041700
C        1.57597300     -0.14206700      0.00495000
C        1.89006800      1.32567100     -0.00272700
C        0.52338300      2.03579600      0.00620500
C       -0.48222900      0.92105800      0.00401600
C       -1.86787200      1.01818900      0.00063500
C       -2.57752200     -0.16613000     -0.00198700
F       -3.92316100     -0.10119300     -0.00634200
C       -1.99086700     -1.42870600     -0.00122500
C       -0.61164100     -1.51619400      0.00236500
C        0.13047100     -0.33322200      0.00503300
H        4.33234962     -0.84950124     -0.83861041
H        4.40221362     -1.00562524      0.72157359
H        2.49990400      1.56874800      0.86945900
H        2.48282800      1.56319800     -0.88830100
H        0.39541200      2.67564500     -0.86890000
H        0.40222700      2.66382300      0.89097700
H       -2.38284800      1.97096300     -0.00066200
H       -2.61719400     -2.31175500     -0.00423900
H       -0.12595000     -2.48417800      0.00204800

B 2 1 F

--Link1--
%chk=mol_003_E_step04_scan_pt4.chk
%nprocshared=8
%mem=16GB
#p wB97XD/6-311+G(d,p) Geom=Check Guess=Read Stable=Opt Pop=NBO7Read Density=Current scrf=(smd,solvent=water)

mol_003_E_step04 SP+NBO7/CMO after constrained opt at R0+0.16A  [oxime: C3=N2-O1]

1 1

$NBO CMO PRINT=2 E2PERT=0.05 BNDIDX $END

--Link1--
%chk=mol_003_E_step04_scan_pt5.chk
%nprocshared=8
%mem=16GB
#p wB97XD/6-311+G(d,p) opt=(ModRedundant) SCF=(Tight,XQC) NoSymm scrf=(smd,solvent=water)

mol_003_E_step04 scan pt5 (R0+0.20A) rigid O-N displacement then constrained opt  [oxime: C3=N2-O1]

1 1
O        3.95696378     -0.54995805     -0.00210777
N        2.36007400     -1.15525500      0.01041700
C        1.57597300     -0.14206700      0.00495000
C        1.89006800      1.32567100     -0.00272700
C        0.52338300      2.03579600      0.00620500
C       -0.48222900      0.92105800      0.00401600
C       -1.86787200      1.01818900      0.00063500
C       -2.57752200     -0.16613000     -0.00198700
F       -3.92316100     -0.10119300     -0.00634200
C       -1.99086700     -1.42870600     -0.00122500
C       -0.61164100     -1.51619400      0.00236500
C        0.13047100     -0.33322200      0.00503300
H        4.36975178     -0.83532405     -0.83890377
H        4.43961578     -0.99144805      0.72128023
H        2.49990400      1.56874800      0.86945900
H        2.48282800      1.56319800     -0.88830100
H        0.39541200      2.67564500     -0.86890000
H        0.40222700      2.66382300      0.89097700
H       -2.38284800      1.97096300     -0.00066200
H       -2.61719400     -2.31175500     -0.00423900
H       -0.12595000     -2.48417800      0.00204800

B 2 1 F

--Link1--
%chk=mol_003_E_step04_scan_pt5.chk
%nprocshared=8
%mem=16GB
#p wB97XD/6-311+G(d,p) Geom=Check Guess=Read Stable=Opt Pop=NBO7Read Density=Current scrf=(smd,solvent=water)

mol_003_E_step04 SP+NBO7/CMO after constrained opt at R0+0.20A  [oxime: C3=N2-O1]

1 1

$NBO CMO PRINT=2 E2PERT=0.05 BNDIDX $END

--Link1--
%chk=mol_003_E_step04_scan_pt6.chk
%nprocshared=8
%mem=16GB
#p wB97XD/6-311+G(d,p) opt=(ModRedundant) SCF=(Tight,XQC) NoSymm scrf=(smd,solvent=water)

mol_003_E_step04 scan pt6 (R0+0.24A) rigid O-N displacement then constrained opt  [oxime: C3=N2-O1]

1 1
O        3.99436593     -0.53578086     -0.00240112
N        2.36007400     -1.15525500      0.01041700
C        1.57597300     -0.14206700      0.00495000
C        1.89006800      1.32567100     -0.00272700
C        0.52338300      2.03579600      0.00620500
C       -0.48222900      0.92105800      0.00401600
C       -1.86787200      1.01818900      0.00063500
C       -2.57752200     -0.16613000     -0.00198700
F       -3.92316100     -0.10119300     -0.00634200
C       -1.99086700     -1.42870600     -0.00122500
C       -0.61164100     -1.51619400      0.00236500
C        0.13047100     -0.33322200      0.00503300
H        4.40715393     -0.82114686     -0.83919712
H        4.47701793     -0.97727086      0.72098688
H        2.49990400      1.56874800      0.86945900
H        2.48282800      1.56319800     -0.88830100
H        0.39541200      2.67564500     -0.86890000
H        0.40222700      2.66382300      0.89097700
H       -2.38284800      1.97096300     -0.00066200
H       -2.61719400     -2.31175500     -0.00423900
H       -0.12595000     -2.48417800      0.00204800

B 2 1 F

--Link1--
%chk=mol_003_E_step04_scan_pt6.chk
%nprocshared=8
%mem=16GB
#p wB97XD/6-311+G(d,p) Geom=Check Guess=Read Stable=Opt Pop=NBO7Read Density=Current scrf=(smd,solvent=water)

mol_003_E_step04 SP+NBO7/CMO after constrained opt at R0+0.24A  [oxime: C3=N2-O1]

1 1

$NBO CMO PRINT=2 E2PERT=0.05 BNDIDX $END


