%chk=mol_003_E_step07_scan_pt1.chk
%nprocshared=8
%mem=16GB
#p wB97XD/6-311+G(d,p) opt=(ModRedundant) SCF=(Tight,XQC) NoSymm scrf=(smd,solvent=water)

mol_003_E_step07 scan pt1 (R0+0.07A) rigid O-N displacement then constrained opt  [oxime: C3=N2-O1]

1 1
O        3.83540677     -0.59603392     -0.00115437
N        2.36007400     -1.15525500      0.01041700
C        1.57597300     -0.14206700      0.00495000
C        1.89006800      1.32567100     -0.00272700
C        0.52338300      2.03579600      0.00620500
C       -0.48222900      0.92105800      0.00401600
C       -1.86787200      1.01818900      0.00063500
C       -2.57752200     -0.16613000     -0.00198700
F       -3.92316100     -0.10119300     -0.00634200
C       -1.99086700     -1.42870600     -0.00122500
C       -0.61164100     -1.51619400      0.00236500
C        0.13047100     -0.33322200      0.00503300
H        4.24819477     -0.88139992     -0.83795037
H        4.31805877     -1.03752392      0.72223363
H        2.49990400      1.56874800      0.86945900
H        2.48282800      1.56319800     -0.88830100
H        0.39541200      2.67564500     -0.86890000
H        0.40222700      2.66382300      0.89097700
H       -2.38284800      1.97096300     -0.00066200
H       -2.61719400     -2.31175500     -0.00423900
H       -0.12595000     -2.48417800      0.00204800

B 2 1 F

--Link1--
%chk=mol_003_E_step07_scan_pt1.chk
%nprocshared=8
%mem=16GB
#p wB97XD/6-311+G(d,p) Geom=Check Guess=Read Stable=Opt Pop=NBO7Read Density=Current scrf=(smd,solvent=water)

mol_003_E_step07 SP+NBO7/CMO after constrained opt at R0+0.07A  [oxime: C3=N2-O1]

1 1

$NBO CMO PRINT=2 E2PERT=0.05 BNDIDX $END

--Link1--
%chk=mol_003_E_step07_scan_pt2.chk
%nprocshared=8
%mem=16GB
#p wB97XD/6-311+G(d,p) opt=(ModRedundant) SCF=(Tight,XQC) NoSymm scrf=(smd,solvent=water)

mol_003_E_step07 scan pt2 (R0+0.14A) rigid O-N displacement then constrained opt  [oxime: C3=N2-O1]

1 1
O        3.90086054     -0.57122383     -0.00166774
N        2.36007400     -1.15525500      0.01041700
C        1.57597300     -0.14206700      0.00495000
C        1.89006800      1.32567100     -0.00272700
C        0.52338300      2.03579600      0.00620500
C       -0.48222900      0.92105800      0.00401600
C       -1.86787200      1.01818900      0.00063500
C       -2.57752200     -0.16613000     -0.00198700
F       -3.92316100     -0.10119300     -0.00634200
C       -1.99086700     -1.42870600     -0.00122500
C       -0.61164100     -1.51619400      0.00236500
C        0.13047100     -0.33322200      0.00503300
H        4.31364854     -0.85658983     -0.83846374
H        4.38351254     -1.01271383      0.72172026
H        2.49990400      1.56874800      0.86945900
H        2.48282800      1.56319800     -0.88830100
H        0.39541200      2.67564500     -0.86890000
H        0.40222700      2.66382300      0.89097700
H       -2.38284800      1.97096300     -0.00066200
H       -2.61719400     -2.31175500     -0.00423900
H       -0.12595000     -2.48417800      0.00204800

B 2 1 F

--Link1--
%chk=mol_003_E_step07_scan_pt2.chk
%nprocshared=8
%mem=16GB
#p wB97XD/6-311+G(d,p) Geom=Check Guess=Read Stable=Opt Pop=NBO7Read Density=Current scrf=(smd,solvent=water)

mol_003_E_step07 SP+NBO7/CMO after constrained opt at R0+0.14A  [oxime: C3=N2-O1]

1 1

$NBO CMO PRINT=2 E2PERT=0.05 BNDIDX $END

--Link1--
%chk=mol_003_E_step07_scan_pt3.chk
%nprocshared=8
%mem=16GB
#p wB97XD/6-311+G(d,p) opt=(ModRedundant) SCF=(Tight,XQC) NoSymm scrf=(smd,solvent=water)

mol_003_E_step07 scan pt3 (R0+0.21A) rigid O-N displacement then constrained opt  [oxime: C3=N2-O1]

1 1
O        3.96631431     -0.54641375     -0.00218111
N        2.36007400     -1.15525500      0.01041700
C        1.57597300     -0.14206700      0.00495000
C        1.89006800      1.32567100     -0.00272700
C        0.52338300      2.03579600      0.00620500
C       -0.48222900      0.92105800      0.00401600
C       -1.86787200      1.01818900      0.00063500
C       -2.57752200     -0.16613000     -0.00198700
F       -3.92316100     -0.10119300     -0.00634200
C       -1.99086700     -1.42870600     -0.00122500
C       -0.61164100     -1.51619400      0.00236500
C        0.13047100     -0.33322200      0.00503300
H        4.37910231     -0.83177975     -0.83897711
H        4.44896631     -0.98790375      0.72120689
H        2.49990400      1.56874800      0.86945900
H        2.48282800      1.56319800     -0.88830100
H        0.39541200      2.67564500     -0.86890000
H        0.40222700      2.66382300      0.89097700
H       -2.38284800      1.97096300     -0.00066200
H       -2.61719400     -2.31175500     -0.00423900
H       -0.12595000     -2.48417800      0.00204800

B 2 1 F

--Link1--
%chk=mol_003_E_step07_scan_pt3.chk
%nprocshared=8
%mem=16GB
#p wB97XD/6-311+G(d,p) Geom=Check Guess=Read Stable=Opt Pop=NBO7Read Density=Current scrf=(smd,solvent=water)

mol_003_E_step07 SP+NBO7/CMO after constrained opt at R0+0.21A  [oxime: C3=N2-O1]

1 1

$NBO CMO PRINT=2 E2PERT=0.05 BNDIDX $END

--Link1--
%chk=mol_003_E_step07_scan_pt4.chk
%nprocshared=8
%mem=16GB
#p wB97XD/6-311+G(d,p) opt=(ModRedundant) SCF=(Tight,XQC) NoSymm scrf=(smd,solvent=water)

mol_003_E_step07 scan pt4 (R0+0.28A) rigid O-N displacement then constrained opt  [oxime: C3=N2-O1]

1 1
O        4.03176809     -0.52160367     -0.00269447
N        2.36007400     -1.15525500      0.01041700
C        1.57597300     -0.14206700      0.00495000
C        1.89006800      1.32567100     -0.00272700
C        0.52338300      2.03579600      0.00620500
C       -0.48222900      0.92105800      0.00401600
C       -1.86787200      1.01818900      0.00063500
C       -2.57752200     -0.16613000     -0.00198700
F       -3.92316100     -0.10119300     -0.00634200
C       -1.99086700     -1.42870600     -0.00122500
C       -0.61164100     -1.51619400      0.00236500
C        0.13047100     -0.33322200      0.00503300
H        4.44455609     -0.80696967     -0.83949047
H        4.51442009     -0.96309367      0.72069353
H        2.49990400      1.56874800      0.86945900
H        2.48282800      1.56319800     -0.88830100
H        0.39541200      2.67564500     -0.86890000
H        0.40222700      2.66382300      0.89097700
H       -2.38284800      1.97096300     -0.00066200
H       -2.61719400     -2.31175500     -0.00423900
H       -0.12595000     -2.48417800      0.00204800

B 2 1 F

--Link1--
%chk=mol_003_E_step07_scan_pt4.chk
%nprocshared=8
%mem=16GB
#p wB97XD/6-311+G(d,p) Geom=Check Guess=Read Stable=Opt Pop=NBO7Read Density=Current scrf=(smd,solvent=water)

mol_003_E_step07 SP+NBO7/CMO after constrained opt at R0+0.28A  [oxime: C3=N2-O1]

1 1

$NBO CMO PRINT=2 E2PERT=0.05 BNDIDX $END

--Link1--
%chk=mol_003_E_step07_scan_pt5.chk
%nprocshared=8
%mem=16GB
#p wB97XD/6-311+G(d,p) opt=(ModRedundant) SCF=(Tight,XQC) NoSymm scrf=(smd,solvent=water)

mol_003_E_step07 scan pt5 (R0+0.35A) rigid O-N displacement then constrained opt  [oxime: C3=N2-O1]

1 1
O        4.09722186     -0.49679358     -0.00320784
N        2.36007400     -1.15525500      0.01041700
C        1.57597300     -0.14206700      0.00495000
C        1.89006800      1.32567100     -0.00272700
C        0.52338300      2.03579600      0.00620500
C       -0.48222900      0.92105800      0.00401600
C       -1.86787200      1.01818900      0.00063500
C       -2.57752200     -0.16613000     -0.00198700
F       -3.92316100     -0.10119300     -0.00634200
C       -1.99086700     -1.42870600     -0.00122500
C       -0.61164100     -1.51619400      0.00236500
C        0.13047100     -0.33322200      0.00503300
H        4.51000986     -0.78215958     -0.84000384
H        4.57987386     -0.93828358      0.72018016
H        2.49990400      1.56874800      0.86945900
H        2.48282800      1.56319800     -0.88830100
H        0.39541200      2.67564500     -0.86890000
H        0.40222700      2.66382300      0.89097700
H       -2.38284800      1.97096300     -0.00066200
H       -2.61719400     -2.31175500     -0.00423900
H       -0.12595000     -2.48417800      0.00204800

B 2 1 F

--Link1--
%chk=mol_003_E_step07_scan_pt5.chk
%nprocshared=8
%mem=16GB
#p wB97XD/6-311+G(d,p) Geom=Check Guess=Read Stable=Opt Pop=NBO7Read Density=Current scrf=(smd,solvent=water)

mol_003_E_step07 SP+NBO7/CMO after constrained opt at R0+0.35A  [oxime: C3=N2-O1]

1 1

$NBO CMO PRINT=2 E2PERT=0.05 BNDIDX $END

--Link1--
%chk=mol_003_E_step07_scan_pt6.chk
%nprocshared=8
%mem=16GB
#p wB97XD/6-311+G(d,p) opt=(ModRedundant) SCF=(Tight,XQC) NoSymm scrf=(smd,solvent=water)

mol_003_E_step07 scan pt6 (R0+0.42A) rigid O-N displacement then constrained opt  [oxime: C3=N2-O1]

1 1
O        4.16267563     -0.47198350     -0.00372121
N        2.36007400     -1.15525500      0.01041700
C        1.57597300     -0.14206700      0.00495000
C        1.89006800      1.32567100     -0.00272700
C        0.52338300      2.03579600      0.00620500
C       -0.48222900      0.92105800      0.00401600
C       -1.86787200      1.01818900      0.00063500
C       -2.57752200     -0.16613000     -0.00198700
F       -3.92316100     -0.10119300     -0.00634200
C       -1.99086700     -1.42870600     -0.00122500
C       -0.61164100     -1.51619400      0.00236500
C        0.13047100     -0.33322200      0.00503300
H        4.57546363     -0.75734950     -0.84051721
H        4.64532763     -0.91347350      0.71966679
H        2.49990400      1.56874800      0.86945900
H        2.48282800      1.56319800     -0.88830100
H        0.39541200      2.67564500     -0.86890000
H        0.40222700      2.66382300      0.89097700
H       -2.38284800      1.97096300     -0.00066200
H       -2.61719400     -2.31175500     -0.00423900
H       -0.12595000     -2.48417800      0.00204800

B 2 1 F

--Link1--
%chk=mol_003_E_step07_scan_pt6.chk
%nprocshared=8
%mem=16GB
#p wB97XD/6-311+G(d,p) Geom=Check Guess=Read Stable=Opt Pop=NBO7Read Density=Current scrf=(smd,solvent=water)

mol_003_E_step07 SP+NBO7/CMO after constrained opt at R0+0.42A  [oxime: C3=N2-O1]

1 1

$NBO CMO PRINT=2 E2PERT=0.05 BNDIDX $END


