24
mol_007_E_opt
O        4.057800      1.079400     -0.132400
N        2.469600      1.496100     -0.002400
C        1.797000      0.411400     -0.054100
C        2.221300     -1.023800     -0.200300
C        0.913200     -1.830900     -0.178600
C       -0.169300     -0.805000     -0.040900
C       -1.535800     -1.010600      0.016800
C       -2.366700      0.095000      0.150100
C       -3.867600     -0.088000      0.165600
F       -4.456300      0.738900      1.052600
F       -4.387300      0.186300     -1.053800
F       -4.216500     -1.348000      0.483400
C       -1.850800      1.393000      0.227100
C       -0.488400      1.613100      0.172300
C        0.342900      0.499300      0.035900
H        4.433600      1.492200      0.670400
H        4.340400      1.625400     -0.892700
H        2.778800     -1.134800     -1.128900
H        2.900100     -1.282100      0.610500
H        0.788300     -2.414600     -1.087500
H        0.892900     -2.533300      0.651600
H       -1.953300     -2.004700     -0.034600
H       -2.533300      2.222700      0.333200
H       -0.110100      2.623000      0.236800
