24
mol_007_Z_opt
O       -2.629400      2.421800      0.301600
N       -3.066500      0.785900      0.163200
C       -2.013700      0.095100      0.003500
C       -2.339000     -1.394600     -0.125700
C       -0.972700     -2.093000      0.032700
C        0.025700     -0.990300     -0.054900
C        1.404900     -1.096600     -0.108100
C        2.157900      0.065100     -0.177900
C        3.665600     -0.019100     -0.286200
F        4.052500      0.131700     -1.573200
F        4.133600     -1.202500      0.146100
F        4.263400      0.950700      0.434000
C        1.562200      1.327000     -0.195900
C        0.190800      1.446500     -0.142100
C       -0.575700      0.281000     -0.064800
H       -2.793700      2.604200      1.247500
H       -3.349500      2.837700     -0.210600
H       -2.762000     -1.564100     -1.112700
H       -3.080400     -1.715100      0.598400
H       -0.802700     -2.859600     -0.719700
H       -0.902100     -2.590000      1.000000
H        1.890800     -2.059900     -0.093900
H        2.184900      2.205700     -0.255600
H       -0.244900      2.432200     -0.177100
