24
mol_022_E_opt
O       -2.699900      2.414800      0.217300
N       -1.061300      2.096400     -0.030600
C       -0.906500      0.827500      0.008900
C       -1.975200     -0.212900      0.184800
C       -1.487800     -1.615300     -0.129600
C       -0.176500     -1.894700      0.576700
C        0.867400     -0.900900      0.174000
C        2.198500     -1.276000      0.075300
C        3.147600     -0.342200     -0.301100
F        4.422700     -0.718600     -0.391800
C        2.818300      0.977400     -0.588400
C        1.500000      1.358000     -0.487600
C        0.508900      0.433400     -0.112300
H       -2.642000      3.095300      0.915800
H       -2.927900      2.877100     -0.612500
H       -2.838400      0.053200     -0.421500
H       -2.295400     -0.136500      1.225300
H       -2.247800     -2.326300      0.180500
H       -1.355400     -1.727500     -1.205700
H       -0.326600     -1.840900      1.659400
H        0.155300     -2.908100      0.366300
H        2.502500     -2.291500      0.284800
H        3.589400      1.674800     -0.880200
H        1.229900      2.383700     -0.707900
