24
mol_022_Z_opt
O       -0.420700      3.060600      0.731900
N       -1.562300      2.022900      0.082400
C       -1.025400      0.910500     -0.234500
C       -2.145100     -0.018300     -0.651700
C       -2.051900     -1.275000      0.200200
C       -0.707700     -1.953600     -0.003600
C        0.472600     -1.020100     -0.005400
C        1.749600     -1.544000      0.127300
C        2.849500     -0.715900      0.003900
F        4.067800     -1.241900      0.120200
C        2.733600      0.644100     -0.250800
C        1.472100      1.180100     -0.348800
C        0.329300      0.374700     -0.195700
H       -0.292300      2.761300      1.654300
H       -0.927600      3.894100      0.746800
H       -1.994800     -0.257000     -1.704800
H       -3.108900      0.473900     -0.564900
H       -2.202500     -1.016100      1.248900
H       -2.853300     -1.957700     -0.072300
H       -0.713700     -2.468600     -0.967800
H       -0.558500     -2.732000      0.743600
H        1.892500     -2.600400      0.307100
H        3.618000      1.249300     -0.377400
H        1.380200      2.229100     -0.588600
