%chk=mol_022_E_scan_pt1.chk
%nprocshared=8
%mem=16GB
#p wB97XD/6-311+G(d,p) opt=(ModRedundant) SCF=(Tight,XQC) NoSymm scrf=(smd,solvent=water)

mol_022_E scan pt1 (R0+0.05A) rigid O-N displacement then constrained opt  [oxime: C3=N2-O1]

1 1
O       -3.57840578     -1.31204307     -0.24586162
N       -2.03802000     -1.47789200     -0.20920700
C       -1.50639100     -0.33085200      0.01462500
C       -2.26315200      0.95625800      0.17019000
C       -1.36796700      2.13611400      0.52529400
C       -0.12842700      2.15155000     -0.36015900
C        0.64388300      0.87409100     -0.17717700
C        2.03555900      0.87155400     -0.21279300
C        2.70909300     -0.31576100     -0.01639800
F        4.05661700     -0.30112800     -0.04840000
C        2.06947800     -1.51915000      0.23030500
C        0.68776000     -1.51952300      0.26113500
C       -0.03213200     -0.33650100      0.04911200
H       -3.91185078     -2.06779007     -0.76251062
H       -3.95045578     -1.39050007      0.65386738
H       -3.04411500      0.81963200      0.92108000
H       -2.77112400      1.13504600     -0.78449500
H       -1.93756900      3.05883300      0.40459600
H       -1.06480600      2.07078100      1.57459700
H       -0.42723200      2.24733300     -1.41104000
H        0.51260500      3.00311900     -0.12732100
H        2.58787900      1.78830200     -0.38271300
H        2.64330400     -2.42128200      0.39972800
H        0.16399000     -2.44490600      0.46452100

B 2 1 F

--Link1--
%chk=mol_022_E_scan_pt1.chk
%nprocshared=8
%mem=16GB
#p wB97XD/6-311+G(d,p) Geom=Check Guess=Read Stable=Opt Pop=NBO7Read Density=Current scrf=(smd,solvent=water)

mol_022_E SP+NBO7/CMO after constrained opt at R0+0.05A  [oxime: C3=N2-O1]

1 1

$NBO CMO PRINT=2 E2PERT=0.05 BNDIDX $END

--Link1--
%chk=mol_022_E_scan_pt2.chk
%nprocshared=8
%mem=16GB
#p wB97XD/6-311+G(d,p) opt=(ModRedundant) SCF=(Tight,XQC) NoSymm scrf=(smd,solvent=water)

mol_022_E scan pt2 (R0+0.10A) rigid O-N displacement then constrained opt  [oxime: C3=N2-O1]

1 1
O       -3.62810457     -1.30669215     -0.24704424
N       -2.03802000     -1.47789200     -0.20920700
C       -1.50639100     -0.33085200      0.01462500
C       -2.26315200      0.95625800      0.17019000
C       -1.36796700      2.13611400      0.52529400
C       -0.12842700      2.15155000     -0.36015900
C        0.64388300      0.87409100     -0.17717700
C        2.03555900      0.87155400     -0.21279300
C        2.70909300     -0.31576100     -0.01639800
F        4.05661700     -0.30112800     -0.04840000
C        2.06947800     -1.51915000      0.23030500
C        0.68776000     -1.51952300      0.26113500
C       -0.03213200     -0.33650100      0.04911200
H       -3.96154957     -2.06243915     -0.76369324
H       -4.00015457     -1.38514915      0.65268476
H       -3.04411500      0.81963200      0.92108000
H       -2.77112400      1.13504600     -0.78449500
H       -1.93756900      3.05883300      0.40459600
H       -1.06480600      2.07078100      1.57459700
H       -0.42723200      2.24733300     -1.41104000
H        0.51260500      3.00311900     -0.12732100
H        2.58787900      1.78830200     -0.38271300
H        2.64330400     -2.42128200      0.39972800
H        0.16399000     -2.44490600      0.46452100

B 2 1 F

--Link1--
%chk=mol_022_E_scan_pt2.chk
%nprocshared=8
%mem=16GB
#p wB97XD/6-311+G(d,p) Geom=Check Guess=Read Stable=Opt Pop=NBO7Read Density=Current scrf=(smd,solvent=water)

mol_022_E SP+NBO7/CMO after constrained opt at R0+0.10A  [oxime: C3=N2-O1]

1 1

$NBO CMO PRINT=2 E2PERT=0.05 BNDIDX $END

--Link1--
%chk=mol_022_E_scan_pt3.chk
%nprocshared=8
%mem=16GB
#p wB97XD/6-311+G(d,p) opt=(ModRedundant) SCF=(Tight,XQC) NoSymm scrf=(smd,solvent=water)

mol_022_E scan pt3 (R0+0.15A) rigid O-N displacement then constrained opt  [oxime: C3=N2-O1]

1 1
O       -3.67780335     -1.30134122     -0.24822686
N       -2.03802000     -1.47789200     -0.20920700
C       -1.50639100     -0.33085200      0.01462500
C       -2.26315200      0.95625800      0.17019000
C       -1.36796700      2.13611400      0.52529400
C       -0.12842700      2.15155000     -0.36015900
C        0.64388300      0.87409100     -0.17717700
C        2.03555900      0.87155400     -0.21279300
C        2.70909300     -0.31576100     -0.01639800
F        4.05661700     -0.30112800     -0.04840000
C        2.06947800     -1.51915000      0.23030500
C        0.68776000     -1.51952300      0.26113500
C       -0.03213200     -0.33650100      0.04911200
H       -4.01124835     -2.05708822     -0.76487586
H       -4.04985335     -1.37979822      0.65150214
H       -3.04411500      0.81963200      0.92108000
H       -2.77112400      1.13504600     -0.78449500
H       -1.93756900      3.05883300      0.40459600
H       -1.06480600      2.07078100      1.57459700
H       -0.42723200      2.24733300     -1.41104000
H        0.51260500      3.00311900     -0.12732100
H        2.58787900      1.78830200     -0.38271300
H        2.64330400     -2.42128200      0.39972800
H        0.16399000     -2.44490600      0.46452100

B 2 1 F

--Link1--
%chk=mol_022_E_scan_pt3.chk
%nprocshared=8
%mem=16GB
#p wB97XD/6-311+G(d,p) Geom=Check Guess=Read Stable=Opt Pop=NBO7Read Density=Current scrf=(smd,solvent=water)

mol_022_E SP+NBO7/CMO after constrained opt at R0+0.15A  [oxime: C3=N2-O1]

1 1

$NBO CMO PRINT=2 E2PERT=0.05 BNDIDX $END

--Link1--
%chk=mol_022_E_scan_pt4.chk
%nprocshared=8
%mem=16GB
#p wB97XD/6-311+G(d,p) opt=(ModRedundant) SCF=(Tight,XQC) NoSymm scrf=(smd,solvent=water)

mol_022_E scan pt4 (R0+0.20A) rigid O-N displacement then constrained opt  [oxime: C3=N2-O1]

1 1
O       -3.72750213     -1.29599030     -0.24940948
N       -2.03802000     -1.47789200     -0.20920700
C       -1.50639100     -0.33085200      0.01462500
C       -2.26315200      0.95625800      0.17019000
C       -1.36796700      2.13611400      0.52529400
C       -0.12842700      2.15155000     -0.36015900
C        0.64388300      0.87409100     -0.17717700
C        2.03555900      0.87155400     -0.21279300
C        2.70909300     -0.31576100     -0.01639800
F        4.05661700     -0.30112800     -0.04840000
C        2.06947800     -1.51915000      0.23030500
C        0.68776000     -1.51952300      0.26113500
C       -0.03213200     -0.33650100      0.04911200
H       -4.06094713     -2.05173730     -0.76605848
H       -4.09955213     -1.37444730      0.65031952
H       -3.04411500      0.81963200      0.92108000
H       -2.77112400      1.13504600     -0.78449500
H       -1.93756900      3.05883300      0.40459600
H       -1.06480600      2.07078100      1.57459700
H       -0.42723200      2.24733300     -1.41104000
H        0.51260500      3.00311900     -0.12732100
H        2.58787900      1.78830200     -0.38271300
H        2.64330400     -2.42128200      0.39972800
H        0.16399000     -2.44490600      0.46452100

B 2 1 F

--Link1--
%chk=mol_022_E_scan_pt4.chk
%nprocshared=8
%mem=16GB
#p wB97XD/6-311+G(d,p) Geom=Check Guess=Read Stable=Opt Pop=NBO7Read Density=Current scrf=(smd,solvent=water)

mol_022_E SP+NBO7/CMO after constrained opt at R0+0.20A  [oxime: C3=N2-O1]

1 1

$NBO CMO PRINT=2 E2PERT=0.05 BNDIDX $END

--Link1--
%chk=mol_022_E_scan_pt5.chk
%nprocshared=8
%mem=16GB
#p wB97XD/6-311+G(d,p) opt=(ModRedundant) SCF=(Tight,XQC) NoSymm scrf=(smd,solvent=water)

mol_022_E scan pt5 (R0+0.25A) rigid O-N displacement then constrained opt  [oxime: C3=N2-O1]

1 1
O       -3.77720091     -1.29063937     -0.25059210
N       -2.03802000     -1.47789200     -0.20920700
C       -1.50639100     -0.33085200      0.01462500
C       -2.26315200      0.95625800      0.17019000
C       -1.36796700      2.13611400      0.52529400
C       -0.12842700      2.15155000     -0.36015900
C        0.64388300      0.87409100     -0.17717700
C        2.03555900      0.87155400     -0.21279300
C        2.70909300     -0.31576100     -0.01639800
F        4.05661700     -0.30112800     -0.04840000
C        2.06947800     -1.51915000      0.23030500
C        0.68776000     -1.51952300      0.26113500
C       -0.03213200     -0.33650100      0.04911200
H       -4.11064591     -2.04638637     -0.76724110
H       -4.14925091     -1.36909637      0.64913690
H       -3.04411500      0.81963200      0.92108000
H       -2.77112400      1.13504600     -0.78449500
H       -1.93756900      3.05883300      0.40459600
H       -1.06480600      2.07078100      1.57459700
H       -0.42723200      2.24733300     -1.41104000
H        0.51260500      3.00311900     -0.12732100
H        2.58787900      1.78830200     -0.38271300
H        2.64330400     -2.42128200      0.39972800
H        0.16399000     -2.44490600      0.46452100

B 2 1 F

--Link1--
%chk=mol_022_E_scan_pt5.chk
%nprocshared=8
%mem=16GB
#p wB97XD/6-311+G(d,p) Geom=Check Guess=Read Stable=Opt Pop=NBO7Read Density=Current scrf=(smd,solvent=water)

mol_022_E SP+NBO7/CMO after constrained opt at R0+0.25A  [oxime: C3=N2-O1]

1 1

$NBO CMO PRINT=2 E2PERT=0.05 BNDIDX $END

--Link1--
%chk=mol_022_E_scan_pt6.chk
%nprocshared=8
%mem=16GB
#p wB97XD/6-311+G(d,p) opt=(ModRedundant) SCF=(Tight,XQC) NoSymm scrf=(smd,solvent=water)

mol_022_E scan pt6 (R0+0.30A) rigid O-N displacement then constrained opt  [oxime: C3=N2-O1]

1 1
O       -3.82689970     -1.28528845     -0.25177472
N       -2.03802000     -1.47789200     -0.20920700
C       -1.50639100     -0.33085200      0.01462500
C       -2.26315200      0.95625800      0.17019000
C       -1.36796700      2.13611400      0.52529400
C       -0.12842700      2.15155000     -0.36015900
C        0.64388300      0.87409100     -0.17717700
C        2.03555900      0.87155400     -0.21279300
C        2.70909300     -0.31576100     -0.01639800
F        4.05661700     -0.30112800     -0.04840000
C        2.06947800     -1.51915000      0.23030500
C        0.68776000     -1.51952300      0.26113500
C       -0.03213200     -0.33650100      0.04911200
H       -4.16034470     -2.04103545     -0.76842372
H       -4.19894970     -1.36374545      0.64795428
H       -3.04411500      0.81963200      0.92108000
H       -2.77112400      1.13504600     -0.78449500
H       -1.93756900      3.05883300      0.40459600
H       -1.06480600      2.07078100      1.57459700
H       -0.42723200      2.24733300     -1.41104000
H        0.51260500      3.00311900     -0.12732100
H        2.58787900      1.78830200     -0.38271300
H        2.64330400     -2.42128200      0.39972800
H        0.16399000     -2.44490600      0.46452100

B 2 1 F

--Link1--
%chk=mol_022_E_scan_pt6.chk
%nprocshared=8
%mem=16GB
#p wB97XD/6-311+G(d,p) Geom=Check Guess=Read Stable=Opt Pop=NBO7Read Density=Current scrf=(smd,solvent=water)

mol_022_E SP+NBO7/CMO after constrained opt at R0+0.30A  [oxime: C3=N2-O1]

1 1

$NBO CMO PRINT=2 E2PERT=0.05 BNDIDX $END


