%chk=mol_009_E_scan_pt1.chk
%nprocshared=8
%mem=16GB
#p wB97XD/6-311+G(d,p) opt=(ModRedundant) SCF=(Tight,XQC) NoSymm scrf=(smd,solvent=water)

mol_009_E scan pt1 (R0+0.05A) rigid O-N displacement then constrained opt  [oxime: C8=N9-O10]

1 1
C        3.44758600     -1.62501300     -0.00248200
C        2.31634900     -0.63358100     -0.00257600
C        2.59124700      0.74666300     -0.00156300
C        1.58654500      1.70138000      0.00108200
C        0.25918100      1.28187100      0.00248200
C       -0.01818000     -0.08290500      0.00168000
C        0.99304100     -1.04766500     -0.00114900
C       -1.46725600     -0.25833500      0.00342700
N       -1.97590500     -1.43437900      0.00913600
O       -3.52638471     -1.25943393      0.00774854
C       -2.13861300      1.08420100     -0.00202400
C       -0.99230000      2.11291800      0.00386100
H        4.05523400     -1.51908900      0.90073700
H        4.10671100     -1.46255300     -0.85965700
H        3.07465500     -2.64979500     -0.04518000
H        3.62797800      1.06909800     -0.00377600
H        1.83249400      2.75737100      0.00110100
H        0.75086800     -2.10479200     -0.00313300
H       -3.87730071     -1.83971693      0.70850854
H       -3.86060871     -1.60375093     -0.84161846
H       -2.78808800      1.16598600      0.87173700
H       -2.77545300      1.16537900     -0.88531000
H       -1.03195900      2.76257100     -0.87286200
H       -1.03455800      2.75428000      0.88664600

B 9 10 F

--Link1--
%chk=mol_009_E_scan_pt1.chk
%nprocshared=8
%mem=16GB
#p wB97XD/6-311+G(d,p) Geom=Check Guess=Read Stable=Opt Pop=NBO7Read Density=Current scrf=(smd,solvent=water)

mol_009_E SP+NBO7/CMO after constrained opt at R0+0.05A  [oxime: C8=N9-O10]

1 1

$NBO CMO PRINT=2 E2PERT=0.05 BNDIDX $END

--Link1--
%chk=mol_009_E_scan_pt2.chk
%nprocshared=8
%mem=16GB
#p wB97XD/6-311+G(d,p) opt=(ModRedundant) SCF=(Tight,XQC) NoSymm scrf=(smd,solvent=water)

mol_009_E scan pt2 (R0+0.10A) rigid O-N displacement then constrained opt  [oxime: C8=N9-O10]

1 1
C        3.44758600     -1.62501300     -0.00248200
C        2.31634900     -0.63358100     -0.00257600
C        2.59124700      0.74666300     -0.00156300
C        1.58654500      1.70138000      0.00108200
C        0.25918100      1.28187100      0.00248200
C       -0.01818000     -0.08290500      0.00168000
C        0.99304100     -1.04766500     -0.00114900
C       -1.46725600     -0.25833500      0.00342700
N       -1.97590500     -1.43437900      0.00913600
O       -3.57606941     -1.25382786      0.00770408
C       -2.13861300      1.08420100     -0.00202400
C       -0.99230000      2.11291800      0.00386100
H        4.05523400     -1.51908900      0.90073700
H        4.10671100     -1.46255300     -0.85965700
H        3.07465500     -2.64979500     -0.04518000
H        3.62797800      1.06909800     -0.00377600
H        1.83249400      2.75737100      0.00110100
H        0.75086800     -2.10479200     -0.00313300
H       -3.92698541     -1.83411086      0.70846408
H       -3.91029341     -1.59814486     -0.84166292
H       -2.78808800      1.16598600      0.87173700
H       -2.77545300      1.16537900     -0.88531000
H       -1.03195900      2.76257100     -0.87286200
H       -1.03455800      2.75428000      0.88664600

B 9 10 F

--Link1--
%chk=mol_009_E_scan_pt2.chk
%nprocshared=8
%mem=16GB
#p wB97XD/6-311+G(d,p) Geom=Check Guess=Read Stable=Opt Pop=NBO7Read Density=Current scrf=(smd,solvent=water)

mol_009_E SP+NBO7/CMO after constrained opt at R0+0.10A  [oxime: C8=N9-O10]

1 1

$NBO CMO PRINT=2 E2PERT=0.05 BNDIDX $END

--Link1--
%chk=mol_009_E_scan_pt3.chk
%nprocshared=8
%mem=16GB
#p wB97XD/6-311+G(d,p) opt=(ModRedundant) SCF=(Tight,XQC) NoSymm scrf=(smd,solvent=water)

mol_009_E scan pt3 (R0+0.15A) rigid O-N displacement then constrained opt  [oxime: C8=N9-O10]

1 1
C        3.44758600     -1.62501300     -0.00248200
C        2.31634900     -0.63358100     -0.00257600
C        2.59124700      0.74666300     -0.00156300
C        1.58654500      1.70138000      0.00108200
C        0.25918100      1.28187100      0.00248200
C       -0.01818000     -0.08290500      0.00168000
C        0.99304100     -1.04766500     -0.00114900
C       -1.46725600     -0.25833500      0.00342700
N       -1.97590500     -1.43437900      0.00913600
O       -3.62575412     -1.24822180      0.00765962
C       -2.13861300      1.08420100     -0.00202400
C       -0.99230000      2.11291800      0.00386100
H        4.05523400     -1.51908900      0.90073700
H        4.10671100     -1.46255300     -0.85965700
H        3.07465500     -2.64979500     -0.04518000
H        3.62797800      1.06909800     -0.00377600
H        1.83249400      2.75737100      0.00110100
H        0.75086800     -2.10479200     -0.00313300
H       -3.97667012     -1.82850480      0.70841962
H       -3.95997812     -1.59253880     -0.84170738
H       -2.78808800      1.16598600      0.87173700
H       -2.77545300      1.16537900     -0.88531000
H       -1.03195900      2.76257100     -0.87286200
H       -1.03455800      2.75428000      0.88664600

B 9 10 F

--Link1--
%chk=mol_009_E_scan_pt3.chk
%nprocshared=8
%mem=16GB
#p wB97XD/6-311+G(d,p) Geom=Check Guess=Read Stable=Opt Pop=NBO7Read Density=Current scrf=(smd,solvent=water)

mol_009_E SP+NBO7/CMO after constrained opt at R0+0.15A  [oxime: C8=N9-O10]

1 1

$NBO CMO PRINT=2 E2PERT=0.05 BNDIDX $END

--Link1--
%chk=mol_009_E_scan_pt4.chk
%nprocshared=8
%mem=16GB
#p wB97XD/6-311+G(d,p) opt=(ModRedundant) SCF=(Tight,XQC) NoSymm scrf=(smd,solvent=water)

mol_009_E scan pt4 (R0+0.20A) rigid O-N displacement then constrained opt  [oxime: C8=N9-O10]

1 1
C        3.44758600     -1.62501300     -0.00248200
C        2.31634900     -0.63358100     -0.00257600
C        2.59124700      0.74666300     -0.00156300
C        1.58654500      1.70138000      0.00108200
C        0.25918100      1.28187100      0.00248200
C       -0.01818000     -0.08290500      0.00168000
C        0.99304100     -1.04766500     -0.00114900
C       -1.46725600     -0.25833500      0.00342700
N       -1.97590500     -1.43437900      0.00913600
O       -3.67543882     -1.24261573      0.00761516
C       -2.13861300      1.08420100     -0.00202400
C       -0.99230000      2.11291800      0.00386100
H        4.05523400     -1.51908900      0.90073700
H        4.10671100     -1.46255300     -0.85965700
H        3.07465500     -2.64979500     -0.04518000
H        3.62797800      1.06909800     -0.00377600
H        1.83249400      2.75737100      0.00110100
H        0.75086800     -2.10479200     -0.00313300
H       -4.02635482     -1.82289873      0.70837516
H       -4.00966282     -1.58693273     -0.84175184
H       -2.78808800      1.16598600      0.87173700
H       -2.77545300      1.16537900     -0.88531000
H       -1.03195900      2.76257100     -0.87286200
H       -1.03455800      2.75428000      0.88664600

B 9 10 F

--Link1--
%chk=mol_009_E_scan_pt4.chk
%nprocshared=8
%mem=16GB
#p wB97XD/6-311+G(d,p) Geom=Check Guess=Read Stable=Opt Pop=NBO7Read Density=Current scrf=(smd,solvent=water)

mol_009_E SP+NBO7/CMO after constrained opt at R0+0.20A  [oxime: C8=N9-O10]

1 1

$NBO CMO PRINT=2 E2PERT=0.05 BNDIDX $END

--Link1--
%chk=mol_009_E_scan_pt5.chk
%nprocshared=8
%mem=16GB
#p wB97XD/6-311+G(d,p) opt=(ModRedundant) SCF=(Tight,XQC) NoSymm scrf=(smd,solvent=water)

mol_009_E scan pt5 (R0+0.25A) rigid O-N displacement then constrained opt  [oxime: C8=N9-O10]

1 1
C        3.44758600     -1.62501300     -0.00248200
C        2.31634900     -0.63358100     -0.00257600
C        2.59124700      0.74666300     -0.00156300
C        1.58654500      1.70138000      0.00108200
C        0.25918100      1.28187100      0.00248200
C       -0.01818000     -0.08290500      0.00168000
C        0.99304100     -1.04766500     -0.00114900
C       -1.46725600     -0.25833500      0.00342700
N       -1.97590500     -1.43437900      0.00913600
O       -3.72512353     -1.23700966      0.00757070
C       -2.13861300      1.08420100     -0.00202400
C       -0.99230000      2.11291800      0.00386100
H        4.05523400     -1.51908900      0.90073700
H        4.10671100     -1.46255300     -0.85965700
H        3.07465500     -2.64979500     -0.04518000
H        3.62797800      1.06909800     -0.00377600
H        1.83249400      2.75737100      0.00110100
H        0.75086800     -2.10479200     -0.00313300
H       -4.07603953     -1.81729266      0.70833070
H       -4.05934753     -1.58132666     -0.84179630
H       -2.78808800      1.16598600      0.87173700
H       -2.77545300      1.16537900     -0.88531000
H       -1.03195900      2.76257100     -0.87286200
H       -1.03455800      2.75428000      0.88664600

B 9 10 F

--Link1--
%chk=mol_009_E_scan_pt5.chk
%nprocshared=8
%mem=16GB
#p wB97XD/6-311+G(d,p) Geom=Check Guess=Read Stable=Opt Pop=NBO7Read Density=Current scrf=(smd,solvent=water)

mol_009_E SP+NBO7/CMO after constrained opt at R0+0.25A  [oxime: C8=N9-O10]

1 1

$NBO CMO PRINT=2 E2PERT=0.05 BNDIDX $END

--Link1--
%chk=mol_009_E_scan_pt6.chk
%nprocshared=8
%mem=16GB
#p wB97XD/6-311+G(d,p) opt=(ModRedundant) SCF=(Tight,XQC) NoSymm scrf=(smd,solvent=water)

mol_009_E scan pt6 (R0+0.30A) rigid O-N displacement then constrained opt  [oxime: C8=N9-O10]

1 1
C        3.44758600     -1.62501300     -0.00248200
C        2.31634900     -0.63358100     -0.00257600
C        2.59124700      0.74666300     -0.00156300
C        1.58654500      1.70138000      0.00108200
C        0.25918100      1.28187100      0.00248200
C       -0.01818000     -0.08290500      0.00168000
C        0.99304100     -1.04766500     -0.00114900
C       -1.46725600     -0.25833500      0.00342700
N       -1.97590500     -1.43437900      0.00913600
O       -3.77480824     -1.23140359      0.00752624
C       -2.13861300      1.08420100     -0.00202400
C       -0.99230000      2.11291800      0.00386100
H        4.05523400     -1.51908900      0.90073700
H        4.10671100     -1.46255300     -0.85965700
H        3.07465500     -2.64979500     -0.04518000
H        3.62797800      1.06909800     -0.00377600
H        1.83249400      2.75737100      0.00110100
H        0.75086800     -2.10479200     -0.00313300
H       -4.12572424     -1.81168659      0.70828624
H       -4.10903224     -1.57572059     -0.84184076
H       -2.78808800      1.16598600      0.87173700
H       -2.77545300      1.16537900     -0.88531000
H       -1.03195900      2.76257100     -0.87286200
H       -1.03455800      2.75428000      0.88664600

B 9 10 F

--Link1--
%chk=mol_009_E_scan_pt6.chk
%nprocshared=8
%mem=16GB
#p wB97XD/6-311+G(d,p) Geom=Check Guess=Read Stable=Opt Pop=NBO7Read Density=Current scrf=(smd,solvent=water)

mol_009_E SP+NBO7/CMO after constrained opt at R0+0.30A  [oxime: C8=N9-O10]

1 1

$NBO CMO PRINT=2 E2PERT=0.05 BNDIDX $END


