%chk=mol_016_Z_opt.chk
%nprocshared=8
%mem=16GB
#p wB97XD/6-311+G(d,p) opt scrf=(smd,solvent=water)

mol_016_Z opt  [oxime: C11=N12-O13]

1 1
C        3.70770000      1.02090000      0.49150000
O        2.30800000      1.01320000      0.79010000
C        1.47680000      0.32260000     -0.00430000
C        1.86240000     -0.41450000     -1.12520000
C        0.92070000     -1.09700000     -1.88760000
C       -0.42020000     -1.07220000     -1.56110000
C       -0.80170000     -0.33920000     -0.43540000
C        0.12070000      0.36370000      0.34030000
C       -0.48490000      1.08860000      1.48780000
C       -2.00470000      0.85870000      1.33620000
C       -2.11960000     -0.13320000      0.16150000
N       -3.30530000     -0.52970000      0.02520000
O       -3.35830000     -1.67160000     -1.35620000
H        3.88800000      1.45980000     -0.48900000
H        4.16710000      1.63460000      1.25740000
H        4.11520000      0.01170000      0.53520000
H        2.89900000     -0.46140000     -1.41530000
H        1.25030000     -1.65290000     -2.75200000
H       -1.12800000     -1.59750000     -2.17790000
H       -0.22600000      2.14490000      1.47700000
H       -0.11630000      0.69650000      2.43400000
H       -2.53440000      1.76960000      1.07300000
H       -2.47410000      0.45790000      2.22870000
H       -4.21000000     -1.37660000     -1.72680000
H       -3.53220000     -2.49680000     -0.86880000


