%chk=mol_016_Z_scan_pt1.chk
%nprocshared=8
%mem=16GB
#p wB97XD/6-311+G(d,p) opt=(ModRedundant) SCF=(Tight,XQC) NoSymm scrf=(smd,solvent=water)

mol_016_Z scan pt1 (R0+0.05A) rigid O-N displacement then constrained opt  [oxime: C11=N12-O13]

1 1
C       -4.03833200     -0.19445000      0.11141300
O       -2.73300600     -0.76432300      0.06860700
C       -1.67232300      0.07933900      0.00113700
C       -1.75728000      1.46589200     -0.05482300
C       -0.59430500      2.24154900     -0.11283000
C        0.66307600      1.66768200     -0.11192400
C        0.73790400      0.26872800     -0.06166900
C       -0.41125100     -0.52072400     -0.01249500
C       -0.11397500     -1.98718600      0.04285700
C        1.40292200     -2.05949200     -0.19291000
C        1.88781100     -0.63740400     -0.04765000
N        3.15340300     -0.48544500      0.07153500
O        3.46769340      1.04065974      0.18596000
H       -4.24448700      0.37891700     -0.79661200
H       -4.72652200     -1.03502400      0.17574600
H       -4.15584100      0.44459100      0.99096800
H       -2.71943800      1.96160300     -0.05451100
H       -0.69067200      3.31992800     -0.15852300
H        1.54661000      2.28537300     -0.15753300
H       -0.67398500     -2.54540600     -0.70912300
H       -0.38515100     -2.39344700      1.02104500
H        1.62190500     -2.37604300     -1.21598800
H        1.92423400     -2.73248000      0.48637100
H        4.13053440      1.24226274     -0.49981000
H        3.89658940      1.18194674      1.05066800

B 12 13 F

--Link1--
%chk=mol_016_Z_scan_pt1.chk
%nprocshared=8
%mem=16GB
#p wB97XD/6-311+G(d,p) Geom=Check Guess=Read Stable=Opt Pop=NBO7Read Density=Current scrf=(smd,solvent=water)

mol_016_Z SP+NBO7/CMO after constrained opt at R0+0.05A  [oxime: C11=N12-O13]

1 1

$NBO CMO PRINT=2 E2PERT=0.05 BNDIDX $END

--Link1--
%chk=mol_016_Z_scan_pt2.chk
%nprocshared=8
%mem=16GB
#p wB97XD/6-311+G(d,p) opt=(ModRedundant) SCF=(Tight,XQC) NoSymm scrf=(smd,solvent=water)

mol_016_Z scan pt2 (R0+0.10A) rigid O-N displacement then constrained opt  [oxime: C11=N12-O13]

1 1
C       -4.03833200     -0.19445000      0.11141300
O       -2.73300600     -0.76432300      0.06860700
C       -1.67232300      0.07933900      0.00113700
C       -1.75728000      1.46589200     -0.05482300
C       -0.59430500      2.24154900     -0.11283000
C        0.66307600      1.66768200     -0.11192400
C        0.73790400      0.26872800     -0.06166900
C       -0.41125100     -0.52072400     -0.01249500
C       -0.11397500     -1.98718600      0.04285700
C        1.40292200     -2.05949200     -0.19291000
C        1.88781100     -0.63740400     -0.04765000
N        3.15340300     -0.48544500      0.07153500
O        3.47775181      1.08950049      0.18962201
H       -4.24448700      0.37891700     -0.79661200
H       -4.72652200     -1.03502400      0.17574600
H       -4.15584100      0.44459100      0.99096800
H       -2.71943800      1.96160300     -0.05451100
H       -0.69067200      3.31992800     -0.15852300
H        1.54661000      2.28537300     -0.15753300
H       -0.67398500     -2.54540600     -0.70912300
H       -0.38515100     -2.39344700      1.02104500
H        1.62190500     -2.37604300     -1.21598800
H        1.92423400     -2.73248000      0.48637100
H        4.14059281      1.29110349     -0.49614799
H        3.90664781      1.23078749      1.05433001

B 12 13 F

--Link1--
%chk=mol_016_Z_scan_pt2.chk
%nprocshared=8
%mem=16GB
#p wB97XD/6-311+G(d,p) Geom=Check Guess=Read Stable=Opt Pop=NBO7Read Density=Current scrf=(smd,solvent=water)

mol_016_Z SP+NBO7/CMO after constrained opt at R0+0.10A  [oxime: C11=N12-O13]

1 1

$NBO CMO PRINT=2 E2PERT=0.05 BNDIDX $END

--Link1--
%chk=mol_016_Z_scan_pt3.chk
%nprocshared=8
%mem=16GB
#p wB97XD/6-311+G(d,p) opt=(ModRedundant) SCF=(Tight,XQC) NoSymm scrf=(smd,solvent=water)

mol_016_Z scan pt3 (R0+0.15A) rigid O-N displacement then constrained opt  [oxime: C11=N12-O13]

1 1
C       -4.03833200     -0.19445000      0.11141300
O       -2.73300600     -0.76432300      0.06860700
C       -1.67232300      0.07933900      0.00113700
C       -1.75728000      1.46589200     -0.05482300
C       -0.59430500      2.24154900     -0.11283000
C        0.66307600      1.66768200     -0.11192400
C        0.73790400      0.26872800     -0.06166900
C       -0.41125100     -0.52072400     -0.01249500
C       -0.11397500     -1.98718600      0.04285700
C        1.40292200     -2.05949200     -0.19291000
C        1.88781100     -0.63740400     -0.04765000
N        3.15340300     -0.48544500      0.07153500
O        3.48781021      1.13834123      0.19328401
H       -4.24448700      0.37891700     -0.79661200
H       -4.72652200     -1.03502400      0.17574600
H       -4.15584100      0.44459100      0.99096800
H       -2.71943800      1.96160300     -0.05451100
H       -0.69067200      3.31992800     -0.15852300
H        1.54661000      2.28537300     -0.15753300
H       -0.67398500     -2.54540600     -0.70912300
H       -0.38515100     -2.39344700      1.02104500
H        1.62190500     -2.37604300     -1.21598800
H        1.92423400     -2.73248000      0.48637100
H        4.15065121      1.33994423     -0.49248599
H        3.91670621      1.27962823      1.05799201

B 12 13 F

--Link1--
%chk=mol_016_Z_scan_pt3.chk
%nprocshared=8
%mem=16GB
#p wB97XD/6-311+G(d,p) Geom=Check Guess=Read Stable=Opt Pop=NBO7Read Density=Current scrf=(smd,solvent=water)

mol_016_Z SP+NBO7/CMO after constrained opt at R0+0.15A  [oxime: C11=N12-O13]

1 1

$NBO CMO PRINT=2 E2PERT=0.05 BNDIDX $END

--Link1--
%chk=mol_016_Z_scan_pt4.chk
%nprocshared=8
%mem=16GB
#p wB97XD/6-311+G(d,p) opt=(ModRedundant) SCF=(Tight,XQC) NoSymm scrf=(smd,solvent=water)

mol_016_Z scan pt4 (R0+0.20A) rigid O-N displacement then constrained opt  [oxime: C11=N12-O13]

1 1
C       -4.03833200     -0.19445000      0.11141300
O       -2.73300600     -0.76432300      0.06860700
C       -1.67232300      0.07933900      0.00113700
C       -1.75728000      1.46589200     -0.05482300
C       -0.59430500      2.24154900     -0.11283000
C        0.66307600      1.66768200     -0.11192400
C        0.73790400      0.26872800     -0.06166900
C       -0.41125100     -0.52072400     -0.01249500
C       -0.11397500     -1.98718600      0.04285700
C        1.40292200     -2.05949200     -0.19291000
C        1.88781100     -0.63740400     -0.04765000
N        3.15340300     -0.48544500      0.07153500
O        3.49786861      1.18718197      0.19694602
H       -4.24448700      0.37891700     -0.79661200
H       -4.72652200     -1.03502400      0.17574600
H       -4.15584100      0.44459100      0.99096800
H       -2.71943800      1.96160300     -0.05451100
H       -0.69067200      3.31992800     -0.15852300
H        1.54661000      2.28537300     -0.15753300
H       -0.67398500     -2.54540600     -0.70912300
H       -0.38515100     -2.39344700      1.02104500
H        1.62190500     -2.37604300     -1.21598800
H        1.92423400     -2.73248000      0.48637100
H        4.16070961      1.38878497     -0.48882398
H        3.92676461      1.32846897      1.06165402

B 12 13 F

--Link1--
%chk=mol_016_Z_scan_pt4.chk
%nprocshared=8
%mem=16GB
#p wB97XD/6-311+G(d,p) Geom=Check Guess=Read Stable=Opt Pop=NBO7Read Density=Current scrf=(smd,solvent=water)

mol_016_Z SP+NBO7/CMO after constrained opt at R0+0.20A  [oxime: C11=N12-O13]

1 1

$NBO CMO PRINT=2 E2PERT=0.05 BNDIDX $END

--Link1--
%chk=mol_016_Z_scan_pt5.chk
%nprocshared=8
%mem=16GB
#p wB97XD/6-311+G(d,p) opt=(ModRedundant) SCF=(Tight,XQC) NoSymm scrf=(smd,solvent=water)

mol_016_Z scan pt5 (R0+0.25A) rigid O-N displacement then constrained opt  [oxime: C11=N12-O13]

1 1
C       -4.03833200     -0.19445000      0.11141300
O       -2.73300600     -0.76432300      0.06860700
C       -1.67232300      0.07933900      0.00113700
C       -1.75728000      1.46589200     -0.05482300
C       -0.59430500      2.24154900     -0.11283000
C        0.66307600      1.66768200     -0.11192400
C        0.73790400      0.26872800     -0.06166900
C       -0.41125100     -0.52072400     -0.01249500
C       -0.11397500     -1.98718600      0.04285700
C        1.40292200     -2.05949200     -0.19291000
C        1.88781100     -0.63740400     -0.04765000
N        3.15340300     -0.48544500      0.07153500
O        3.50792702      1.23602272      0.20060802
H       -4.24448700      0.37891700     -0.79661200
H       -4.72652200     -1.03502400      0.17574600
H       -4.15584100      0.44459100      0.99096800
H       -2.71943800      1.96160300     -0.05451100
H       -0.69067200      3.31992800     -0.15852300
H        1.54661000      2.28537300     -0.15753300
H       -0.67398500     -2.54540600     -0.70912300
H       -0.38515100     -2.39344700      1.02104500
H        1.62190500     -2.37604300     -1.21598800
H        1.92423400     -2.73248000      0.48637100
H        4.17076802      1.43762572     -0.48516198
H        3.93682302      1.37730972      1.06531602

B 12 13 F

--Link1--
%chk=mol_016_Z_scan_pt5.chk
%nprocshared=8
%mem=16GB
#p wB97XD/6-311+G(d,p) Geom=Check Guess=Read Stable=Opt Pop=NBO7Read Density=Current scrf=(smd,solvent=water)

mol_016_Z SP+NBO7/CMO after constrained opt at R0+0.25A  [oxime: C11=N12-O13]

1 1

$NBO CMO PRINT=2 E2PERT=0.05 BNDIDX $END

--Link1--
%chk=mol_016_Z_scan_pt6.chk
%nprocshared=8
%mem=16GB
#p wB97XD/6-311+G(d,p) opt=(ModRedundant) SCF=(Tight,XQC) NoSymm scrf=(smd,solvent=water)

mol_016_Z scan pt6 (R0+0.30A) rigid O-N displacement then constrained opt  [oxime: C11=N12-O13]

1 1
C       -4.03833200     -0.19445000      0.11141300
O       -2.73300600     -0.76432300      0.06860700
C       -1.67232300      0.07933900      0.00113700
C       -1.75728000      1.46589200     -0.05482300
C       -0.59430500      2.24154900     -0.11283000
C        0.66307600      1.66768200     -0.11192400
C        0.73790400      0.26872800     -0.06166900
C       -0.41125100     -0.52072400     -0.01249500
C       -0.11397500     -1.98718600      0.04285700
C        1.40292200     -2.05949200     -0.19291000
C        1.88781100     -0.63740400     -0.04765000
N        3.15340300     -0.48544500      0.07153500
O        3.51798542      1.28486346      0.20427003
H       -4.24448700      0.37891700     -0.79661200
H       -4.72652200     -1.03502400      0.17574600
H       -4.15584100      0.44459100      0.99096800
H       -2.71943800      1.96160300     -0.05451100
H       -0.69067200      3.31992800     -0.15852300
H        1.54661000      2.28537300     -0.15753300
H       -0.67398500     -2.54540600     -0.70912300
H       -0.38515100     -2.39344700      1.02104500
H        1.62190500     -2.37604300     -1.21598800
H        1.92423400     -2.73248000      0.48637100
H        4.18082642      1.48646646     -0.48149997
H        3.94688142      1.42615046      1.06897803

B 12 13 F

--Link1--
%chk=mol_016_Z_scan_pt6.chk
%nprocshared=8
%mem=16GB
#p wB97XD/6-311+G(d,p) Geom=Check Guess=Read Stable=Opt Pop=NBO7Read Density=Current scrf=(smd,solvent=water)

mol_016_Z SP+NBO7/CMO after constrained opt at R0+0.30A  [oxime: C11=N12-O13]

1 1

$NBO CMO PRINT=2 E2PERT=0.05 BNDIDX $END


