%chk=mol_014_Z_sp4.chk
%nprocshared=8
%mem=16GB
#p wB97XD/6-311+G(d,p) sp pop=nbo7read scrf=(smd,solvent=water)

mol_014_Z_sp4  R(N-O)=1.8034A  [oxime: C3=N2-O1]

1 1
O       -2.64066800     -1.19904500     -0.52810000
N       -2.43795600      0.53037100     -0.05866400
C       -1.20654900      0.74043100      0.13291300
C       -0.92310000      2.21663500      0.42849400
C        0.49829100      2.39663000     -0.12829000
C        1.07524300      1.01201900     -0.10498100
C        2.40286100      0.63888800     -0.23413100
C        2.72707900     -0.71075100     -0.16768900
C        1.74989100     -1.68235000      0.04120200
C        0.43165700     -1.29908400      0.16154000
F       -0.48028200     -2.24215600      0.42765400
C        0.07097000      0.04423600      0.06398300
H       -2.85125600     -1.65134400      0.30596800
H       -3.47836100     -1.13382400     -1.01429400
H       -0.93206100      2.31343600      1.51680500
H       -1.66605100      2.88536300      0.00048400
H        1.07830600      3.09752500      0.47234200
H        0.46438700      2.77222500     -1.15404300
H        3.17306300      1.38798600     -0.37032400
H        3.76126200     -1.02151400     -0.25806700
H        2.00622700     -2.73062000      0.12945200

$NBO E2PERT BNDIDX NBOSUM CMO $END


