%chk=mol_014_Z_sp2.chk
%nprocshared=8
%mem=16GB
#p wB97XD/6-311+G(d,p) sp pop=nbo7read scrf=(smd,solvent=water)

mol_014_Z_sp2  R(N-O)=1.6034A  [oxime: C3=N2-O1]

1 1
O       -2.48934900     -1.22166900     -0.51502100
N       -2.47510800      0.32099200     -0.07802100
C       -1.26509700      0.66464100      0.13541000
C       -1.06514600      2.13283400      0.44036100
C        0.34398100      2.41257400     -0.10742600
C        0.99981400      1.06152600     -0.10301800
C        2.34819000      0.77183400     -0.23619400
C        2.75630000     -0.55489900     -0.17446400
C        1.84017900     -1.58320700      0.03762000
C        0.50086500     -1.28033300      0.16137800
F       -0.34515200     -2.28259600      0.43856100
C        0.05236300      0.03652600      0.06171200
H       -2.84551000     -1.72473700      0.23983200
H       -3.16402400     -1.25717900     -1.21696200
H       -1.07893300      2.23856600      1.52877600
H       -1.84854000      2.75673100      0.01535800
H        0.88966200      3.13584900      0.49839400
H        0.28839300      2.79886100     -1.12869700
H        3.07013400      1.56817000     -0.37017800
H        3.80743400     -0.80163300     -0.26772400
H        2.15960100     -2.61384100      0.12820700

$NBO E2PERT BNDIDX NBOSUM CMO $END


