%chk=mol_002_Z_scan_pt1.chk
%nprocshared=8
%mem=16GB
#p wB97XD/6-311+G(d,p) opt=(ModRedundant) SCF=(Tight,XQC) NoSymm scrf=(smd,solvent=water)

mol_002_Z scan pt1 (R0+0.05A) rigid O-N displacement then constrained opt  [oxime: C11=N12-O13]

1 1
C       -4.24127200      0.30438800      0.05583900
O       -3.30981400     -0.77465500     -0.01349400
C       -1.99214900     -0.48983100     -0.01833800
C       -1.13690400     -1.60710300     -0.07852100
C        0.22824600     -1.44690900     -0.08707100
C        0.76081200     -0.14626900     -0.03949700
C       -0.09644600      0.95910400      0.01809800
C       -1.47497300      0.80365400      0.03023300
C        0.65910100      2.25320500      0.09161100
C        2.12185500      1.84742600     -0.14638100
C        2.12877600      0.33963200     -0.03747500
N        3.28711600     -0.20823900      0.03945300
O        3.09483502     -1.75816839      0.11253407
H       -4.14050400      0.96053100     -0.81238200
H       -5.22645300     -0.15714400      0.05415700
H       -4.10390600      0.87632600      0.97707500
H       -1.57887200     -2.59538500     -0.11950100
H        0.86552800     -2.31724400     -0.13692400
H       -2.11681200      1.67349800      0.07619400
H        0.30326700      2.97302100     -0.64685500
H        0.52963500      2.70313800      1.07917100
H        2.82322500      2.30155800      0.55250900
H        2.44045500      2.10647000     -1.15918300
H        3.47489502     -2.05746839      0.95869207
H        3.63578502     -2.14647139     -0.59906393

B 12 13 F

--Link1--
%chk=mol_002_Z_scan_pt1.chk
%nprocshared=8
%mem=16GB
#p wB97XD/6-311+G(d,p) Geom=Check Guess=Read Stable=Opt Pop=NBO7Read Density=Current scrf=(smd,solvent=water)

mol_002_Z SP+NBO7/CMO after constrained opt at R0+0.05A  [oxime: C11=N12-O13]

1 1

$NBO CMO PRINT=2 E2PERT=0.05 BNDIDX $END

--Link1--
%chk=mol_002_Z_scan_pt2.chk
%nprocshared=8
%mem=16GB
#p wB97XD/6-311+G(d,p) opt=(ModRedundant) SCF=(Tight,XQC) NoSymm scrf=(smd,solvent=water)

mol_002_Z scan pt2 (R0+0.10A) rigid O-N displacement then constrained opt  [oxime: C11=N12-O13]

1 1
C       -4.24127200      0.30438800      0.05583900
O       -3.30981400     -0.77465500     -0.01349400
C       -1.99214900     -0.48983100     -0.01833800
C       -1.13690400     -1.60710300     -0.07852100
C        0.22824600     -1.44690900     -0.08707100
C        0.76081200     -0.14626900     -0.03949700
C       -0.09644600      0.95910400      0.01809800
C       -1.47497300      0.80365400      0.03023300
C        0.65910100      2.25320500      0.09161100
C        2.12185500      1.84742600     -0.14638100
C        2.12877600      0.33963200     -0.03747500
N        3.28711600     -0.20823900      0.03945300
O        3.08868604     -1.80773379      0.11487114
H       -4.14050400      0.96053100     -0.81238200
H       -5.22645300     -0.15714400      0.05415700
H       -4.10390600      0.87632600      0.97707500
H       -1.57887200     -2.59538500     -0.11950100
H        0.86552800     -2.31724400     -0.13692400
H       -2.11681200      1.67349800      0.07619400
H        0.30326700      2.97302100     -0.64685500
H        0.52963500      2.70313800      1.07917100
H        2.82322500      2.30155800      0.55250900
H        2.44045500      2.10647000     -1.15918300
H        3.46874604     -2.10703379      0.96102914
H        3.62963604     -2.19603679     -0.59672686

B 12 13 F

--Link1--
%chk=mol_002_Z_scan_pt2.chk
%nprocshared=8
%mem=16GB
#p wB97XD/6-311+G(d,p) Geom=Check Guess=Read Stable=Opt Pop=NBO7Read Density=Current scrf=(smd,solvent=water)

mol_002_Z SP+NBO7/CMO after constrained opt at R0+0.10A  [oxime: C11=N12-O13]

1 1

$NBO CMO PRINT=2 E2PERT=0.05 BNDIDX $END

--Link1--
%chk=mol_002_Z_scan_pt3.chk
%nprocshared=8
%mem=16GB
#p wB97XD/6-311+G(d,p) opt=(ModRedundant) SCF=(Tight,XQC) NoSymm scrf=(smd,solvent=water)

mol_002_Z scan pt3 (R0+0.15A) rigid O-N displacement then constrained opt  [oxime: C11=N12-O13]

1 1
C       -4.24127200      0.30438800      0.05583900
O       -3.30981400     -0.77465500     -0.01349400
C       -1.99214900     -0.48983100     -0.01833800
C       -1.13690400     -1.60710300     -0.07852100
C        0.22824600     -1.44690900     -0.08707100
C        0.76081200     -0.14626900     -0.03949700
C       -0.09644600      0.95910400      0.01809800
C       -1.47497300      0.80365400      0.03023300
C        0.65910100      2.25320500      0.09161100
C        2.12185500      1.84742600     -0.14638100
C        2.12877600      0.33963200     -0.03747500
N        3.28711600     -0.20823900      0.03945300
O        3.08253707     -1.85729918      0.11720821
H       -4.14050400      0.96053100     -0.81238200
H       -5.22645300     -0.15714400      0.05415700
H       -4.10390600      0.87632600      0.97707500
H       -1.57887200     -2.59538500     -0.11950100
H        0.86552800     -2.31724400     -0.13692400
H       -2.11681200      1.67349800      0.07619400
H        0.30326700      2.97302100     -0.64685500
H        0.52963500      2.70313800      1.07917100
H        2.82322500      2.30155800      0.55250900
H        2.44045500      2.10647000     -1.15918300
H        3.46259707     -2.15659918      0.96336621
H        3.62348707     -2.24560218     -0.59438979

B 12 13 F

--Link1--
%chk=mol_002_Z_scan_pt3.chk
%nprocshared=8
%mem=16GB
#p wB97XD/6-311+G(d,p) Geom=Check Guess=Read Stable=Opt Pop=NBO7Read Density=Current scrf=(smd,solvent=water)

mol_002_Z SP+NBO7/CMO after constrained opt at R0+0.15A  [oxime: C11=N12-O13]

1 1

$NBO CMO PRINT=2 E2PERT=0.05 BNDIDX $END

--Link1--
%chk=mol_002_Z_scan_pt4.chk
%nprocshared=8
%mem=16GB
#p wB97XD/6-311+G(d,p) opt=(ModRedundant) SCF=(Tight,XQC) NoSymm scrf=(smd,solvent=water)

mol_002_Z scan pt4 (R0+0.20A) rigid O-N displacement then constrained opt  [oxime: C11=N12-O13]

1 1
C       -4.24127200      0.30438800      0.05583900
O       -3.30981400     -0.77465500     -0.01349400
C       -1.99214900     -0.48983100     -0.01833800
C       -1.13690400     -1.60710300     -0.07852100
C        0.22824600     -1.44690900     -0.08707100
C        0.76081200     -0.14626900     -0.03949700
C       -0.09644600      0.95910400      0.01809800
C       -1.47497300      0.80365400      0.03023300
C        0.65910100      2.25320500      0.09161100
C        2.12185500      1.84742600     -0.14638100
C        2.12877600      0.33963200     -0.03747500
N        3.28711600     -0.20823900      0.03945300
O        3.07638809     -1.90686457      0.11954528
H       -4.14050400      0.96053100     -0.81238200
H       -5.22645300     -0.15714400      0.05415700
H       -4.10390600      0.87632600      0.97707500
H       -1.57887200     -2.59538500     -0.11950100
H        0.86552800     -2.31724400     -0.13692400
H       -2.11681200      1.67349800      0.07619400
H        0.30326700      2.97302100     -0.64685500
H        0.52963500      2.70313800      1.07917100
H        2.82322500      2.30155800      0.55250900
H        2.44045500      2.10647000     -1.15918300
H        3.45644809     -2.20616457      0.96570328
H        3.61733809     -2.29516757     -0.59205272

B 12 13 F

--Link1--
%chk=mol_002_Z_scan_pt4.chk
%nprocshared=8
%mem=16GB
#p wB97XD/6-311+G(d,p) Geom=Check Guess=Read Stable=Opt Pop=NBO7Read Density=Current scrf=(smd,solvent=water)

mol_002_Z SP+NBO7/CMO after constrained opt at R0+0.20A  [oxime: C11=N12-O13]

1 1

$NBO CMO PRINT=2 E2PERT=0.05 BNDIDX $END

--Link1--
%chk=mol_002_Z_scan_pt5.chk
%nprocshared=8
%mem=16GB
#p wB97XD/6-311+G(d,p) opt=(ModRedundant) SCF=(Tight,XQC) NoSymm scrf=(smd,solvent=water)

mol_002_Z scan pt5 (R0+0.25A) rigid O-N displacement then constrained opt  [oxime: C11=N12-O13]

1 1
C       -4.24127200      0.30438800      0.05583900
O       -3.30981400     -0.77465500     -0.01349400
C       -1.99214900     -0.48983100     -0.01833800
C       -1.13690400     -1.60710300     -0.07852100
C        0.22824600     -1.44690900     -0.08707100
C        0.76081200     -0.14626900     -0.03949700
C       -0.09644600      0.95910400      0.01809800
C       -1.47497300      0.80365400      0.03023300
C        0.65910100      2.25320500      0.09161100
C        2.12185500      1.84742600     -0.14638100
C        2.12877600      0.33963200     -0.03747500
N        3.28711600     -0.20823900      0.03945300
O        3.07023911     -1.95642996      0.12188234
H       -4.14050400      0.96053100     -0.81238200
H       -5.22645300     -0.15714400      0.05415700
H       -4.10390600      0.87632600      0.97707500
H       -1.57887200     -2.59538500     -0.11950100
H        0.86552800     -2.31724400     -0.13692400
H       -2.11681200      1.67349800      0.07619400
H        0.30326700      2.97302100     -0.64685500
H        0.52963500      2.70313800      1.07917100
H        2.82322500      2.30155800      0.55250900
H        2.44045500      2.10647000     -1.15918300
H        3.45029911     -2.25572996      0.96804034
H        3.61118911     -2.34473296     -0.58971566

B 12 13 F

--Link1--
%chk=mol_002_Z_scan_pt5.chk
%nprocshared=8
%mem=16GB
#p wB97XD/6-311+G(d,p) Geom=Check Guess=Read Stable=Opt Pop=NBO7Read Density=Current scrf=(smd,solvent=water)

mol_002_Z SP+NBO7/CMO after constrained opt at R0+0.25A  [oxime: C11=N12-O13]

1 1

$NBO CMO PRINT=2 E2PERT=0.05 BNDIDX $END

--Link1--
%chk=mol_002_Z_scan_pt6.chk
%nprocshared=8
%mem=16GB
#p wB97XD/6-311+G(d,p) opt=(ModRedundant) SCF=(Tight,XQC) NoSymm scrf=(smd,solvent=water)

mol_002_Z scan pt6 (R0+0.30A) rigid O-N displacement then constrained opt  [oxime: C11=N12-O13]

1 1
C       -4.24127200      0.30438800      0.05583900
O       -3.30981400     -0.77465500     -0.01349400
C       -1.99214900     -0.48983100     -0.01833800
C       -1.13690400     -1.60710300     -0.07852100
C        0.22824600     -1.44690900     -0.08707100
C        0.76081200     -0.14626900     -0.03949700
C       -0.09644600      0.95910400      0.01809800
C       -1.47497300      0.80365400      0.03023300
C        0.65910100      2.25320500      0.09161100
C        2.12185500      1.84742600     -0.14638100
C        2.12877600      0.33963200     -0.03747500
N        3.28711600     -0.20823900      0.03945300
O        3.06409013     -2.00599536      0.12421941
H       -4.14050400      0.96053100     -0.81238200
H       -5.22645300     -0.15714400      0.05415700
H       -4.10390600      0.87632600      0.97707500
H       -1.57887200     -2.59538500     -0.11950100
H        0.86552800     -2.31724400     -0.13692400
H       -2.11681200      1.67349800      0.07619400
H        0.30326700      2.97302100     -0.64685500
H        0.52963500      2.70313800      1.07917100
H        2.82322500      2.30155800      0.55250900
H        2.44045500      2.10647000     -1.15918300
H        3.44415013     -2.30529536      0.97037741
H        3.60504013     -2.39429836     -0.58737859

B 12 13 F

--Link1--
%chk=mol_002_Z_scan_pt6.chk
%nprocshared=8
%mem=16GB
#p wB97XD/6-311+G(d,p) Geom=Check Guess=Read Stable=Opt Pop=NBO7Read Density=Current scrf=(smd,solvent=water)

mol_002_Z SP+NBO7/CMO after constrained opt at R0+0.30A  [oxime: C11=N12-O13]

1 1

$NBO CMO PRINT=2 E2PERT=0.05 BNDIDX $END


