%chk=mol_002_Z_opt.chk
%nprocshared=8
%mem=16GB
#p wB97XD/6-311+G(d,p) opt scrf=(smd,solvent=water)

mol_002_Z opt  [oxime: C11=N12-O13]

1 1
C        4.12900000     -0.17430000     -0.01010000
O        3.19380000      0.80470000     -0.47770000
C        1.88860000      0.56980000     -0.34070000
C        1.04130000      1.58830000     -0.82900000
C       -0.31620000      1.45650000     -0.74010000
C       -0.85360000      0.29580000     -0.15580000
C       -0.00400000     -0.71940000      0.32450000
C        1.36290000     -0.58900000      0.23630000
C       -0.76440000     -1.86210000      0.91110000
C       -2.24590000     -1.53660000      0.62830000
C       -2.21510000     -0.10710000      0.06200000
N       -3.39750000      0.34440000     -0.04620000
O       -3.29620000      1.95170000     -0.69870000
H        3.99510000     -1.11500000     -0.54300000
H        5.10890000      0.23480000     -0.22500000
H        4.01770000     -0.32580000      1.06290000
H        1.50030000      2.45910000     -1.27240000
H       -0.93260000      2.24810000     -1.13560000
H        2.00970000     -1.36790000      0.60470000
H       -0.46060000     -2.81120000      0.47710000
H       -0.57760000     -1.93590000      1.98080000
H       -2.87550000     -1.59550000      1.51030000
H       -2.67380000     -2.19900000     -0.11910000
H       -3.56170000      2.47260000      0.08220000
H       -4.07320000      1.91280000     -1.28690000


