24
mol_026_Z_opt
O        2.068700     -2.334600     -0.714900
N        0.411400     -2.502500     -0.287100
C       -0.066100     -1.370700      0.023700
C       -1.566400     -1.634100      0.307100
C       -2.347900     -0.345100      0.504200
C       -1.860400      0.722900     -0.461100
C       -0.419700      1.027000     -0.188900
C        0.065100      2.330700     -0.174700
C        1.376600      2.607800      0.161700
C        2.225500      1.559400      0.495000
F        3.487100      1.827300      0.854100
C        1.801400      0.250600      0.472800
C        0.473500     -0.020000      0.112300
H        2.340500     -3.271100     -0.682100
H        2.037800     -2.069200     -1.654000
H       -1.626600     -2.277100      1.185600
H       -1.952700     -2.214000     -0.530700
H       -2.229200      0.008700      1.528000
H       -3.407400     -0.542500      0.353900
H       -1.985700      0.374100     -1.489800
H       -2.462200      1.623600     -0.368300
H       -0.602900      3.146000     -0.416400
H        1.749400      3.621300      0.183600
H        2.489700     -0.518200      0.786000
