24
mol_006_Z_opt
C        3.670800     -0.340300     -0.031000
C        2.197700     -0.122900      0.012600
C        1.684100      1.167900      0.217200
C        0.330300      1.403600      0.253600
C       -0.542400      0.322500      0.079200
C       -0.042400     -0.977000     -0.119400
C        1.320400     -1.189800     -0.153000
C       -1.129500     -1.984800     -0.285800
C       -2.430400     -1.207100     -0.002600
C       -1.985000      0.256900      0.073800
N       -2.992100      1.030700      0.093200
O       -2.426600      2.645200      0.186500
H        4.159600      0.092600      0.840800
H        4.106900      0.145400     -0.905100
H        3.924800     -1.394300     -0.075400
H        2.372400      1.989900      0.353400
H       -0.015200      2.409700      0.430600
H        1.713000     -2.184700     -0.305600
H       -1.005000     -2.835400      0.380600
H       -1.131700     -2.384700     -1.299300
H       -2.866700     -1.482100      0.954400
H       -3.196200     -1.352400     -0.757900
H       -2.608800      2.970200     -0.715900
H       -3.108200      3.020600      0.775100
