24
mol_006_E_opt
C        3.884600     -0.078000     -0.207300
C        2.408900      0.092400     -0.093600
C        1.880600      1.283700      0.435100
C        0.521500      1.485500      0.552200
C       -0.328700      0.460500      0.126000
C        0.176100     -0.734900     -0.406800
C        1.540500     -0.914500     -0.513700
C       -0.920400     -1.680300     -0.795700
C       -2.220000     -0.946400     -0.433100
C       -1.778400      0.379700      0.130600
N       -2.446800      1.372100      0.582000
O       -4.053400      0.958500      0.454300
H        4.153000     -1.077800     -0.532600
H        4.378300      0.115400      0.744400
H        4.299900      0.630300     -0.925400
H        2.566400      2.056000      0.756400
H        0.150100      2.414100      0.963700
H        1.943000     -1.831500     -0.920200
H       -0.834800     -2.623900     -0.262700
H       -0.879600     -1.913400     -1.856900
H       -2.814200     -1.467900      0.314500
H       -2.869100     -0.771600     -1.288700
H       -4.355800      1.087600      1.374100
H       -4.401500      1.704700     -0.071200
