%chk=mol_029_Z_scan_pt1.chk
%nprocshared=8
%mem=16GB
#p wB97XD/6-311+G(d,p) opt=(ModRedundant) SCF=(Tight,XQC) NoSymm scrf=(smd,solvent=water)

mol_029_Z scan pt1 (R0+0.05A) rigid O-N displacement then constrained opt  [oxime: C3=N2-O1]

1 1
O        0.53758037     -2.46322367     -1.03290182
N        1.68968300     -1.67059500     -0.34929100
C        1.23797300     -0.56609200      0.11364900
C        2.30932000      0.31038400      0.71550000
C        1.97899300      1.80798400      0.57707900
C        1.01838500      2.08163000     -0.58398600
C       -0.24962400      1.30963900     -0.34817100
C       -1.51618300      1.87042700     -0.46109700
C       -2.64861700      1.12562100     -0.15197400
C       -2.53934900     -0.18703300      0.29279400
C       -1.27952300     -0.73546400      0.38664700
F       -1.15915100     -1.99337500      0.86725900
C       -0.12840900     -0.03194700      0.05282200
H        0.18994637     -3.13449667     -0.41269682
H        0.94784137     -2.94114867     -1.77701082
H        3.26035900      0.06631900      0.24059300
H        2.38751000      0.03232800      1.77011100
H        2.90863200      2.36011100      0.43548400
H        1.51895300      2.16925300      1.49986800
H        0.79595700      3.14653200     -0.65891000
H        1.47620000      1.77238700     -1.53053100
H       -1.61326600      2.90228900     -0.77797500
H       -3.63084100      1.57535600     -0.23647200
H       -3.40522600     -0.77410600      0.57129800

B 2 1 F

--Link1--
%chk=mol_029_Z_scan_pt1.chk
%nprocshared=8
%mem=16GB
#p wB97XD/6-311+G(d,p) Geom=Check Guess=Read Stable=Opt Pop=NBO7Read Density=Current scrf=(smd,solvent=water)

mol_029_Z SP+NBO7/CMO after constrained opt at R0+0.05A  [oxime: C3=N2-O1]

1 1

$NBO CMO PRINT=2 E2PERT=0.05 BNDIDX $END

--Link1--
%chk=mol_029_Z_scan_pt2.chk
%nprocshared=8
%mem=16GB
#p wB97XD/6-311+G(d,p) opt=(ModRedundant) SCF=(Tight,XQC) NoSymm scrf=(smd,solvent=water)

mol_029_Z scan pt2 (R0+0.10A) rigid O-N displacement then constrained opt  [oxime: C3=N2-O1]

1 1
O        0.50057275     -2.48868434     -1.05486064
N        1.68968300     -1.67059500     -0.34929100
C        1.23797300     -0.56609200      0.11364900
C        2.30932000      0.31038400      0.71550000
C        1.97899300      1.80798400      0.57707900
C        1.01838500      2.08163000     -0.58398600
C       -0.24962400      1.30963900     -0.34817100
C       -1.51618300      1.87042700     -0.46109700
C       -2.64861700      1.12562100     -0.15197400
C       -2.53934900     -0.18703300      0.29279400
C       -1.27952300     -0.73546400      0.38664700
F       -1.15915100     -1.99337500      0.86725900
C       -0.12840900     -0.03194700      0.05282200
H        0.15293875     -3.15995734     -0.43465564
H        0.91083375     -2.96660934     -1.79896964
H        3.26035900      0.06631900      0.24059300
H        2.38751000      0.03232800      1.77011100
H        2.90863200      2.36011100      0.43548400
H        1.51895300      2.16925300      1.49986800
H        0.79595700      3.14653200     -0.65891000
H        1.47620000      1.77238700     -1.53053100
H       -1.61326600      2.90228900     -0.77797500
H       -3.63084100      1.57535600     -0.23647200
H       -3.40522600     -0.77410600      0.57129800

B 2 1 F

--Link1--
%chk=mol_029_Z_scan_pt2.chk
%nprocshared=8
%mem=16GB
#p wB97XD/6-311+G(d,p) Geom=Check Guess=Read Stable=Opt Pop=NBO7Read Density=Current scrf=(smd,solvent=water)

mol_029_Z SP+NBO7/CMO after constrained opt at R0+0.10A  [oxime: C3=N2-O1]

1 1

$NBO CMO PRINT=2 E2PERT=0.05 BNDIDX $END

--Link1--
%chk=mol_029_Z_scan_pt3.chk
%nprocshared=8
%mem=16GB
#p wB97XD/6-311+G(d,p) opt=(ModRedundant) SCF=(Tight,XQC) NoSymm scrf=(smd,solvent=water)

mol_029_Z scan pt3 (R0+0.15A) rigid O-N displacement then constrained opt  [oxime: C3=N2-O1]

1 1
O        0.46356512     -2.51414501     -1.07681946
N        1.68968300     -1.67059500     -0.34929100
C        1.23797300     -0.56609200      0.11364900
C        2.30932000      0.31038400      0.71550000
C        1.97899300      1.80798400      0.57707900
C        1.01838500      2.08163000     -0.58398600
C       -0.24962400      1.30963900     -0.34817100
C       -1.51618300      1.87042700     -0.46109700
C       -2.64861700      1.12562100     -0.15197400
C       -2.53934900     -0.18703300      0.29279400
C       -1.27952300     -0.73546400      0.38664700
F       -1.15915100     -1.99337500      0.86725900
C       -0.12840900     -0.03194700      0.05282200
H        0.11593112     -3.18541801     -0.45661446
H        0.87382612     -2.99207001     -1.82092846
H        3.26035900      0.06631900      0.24059300
H        2.38751000      0.03232800      1.77011100
H        2.90863200      2.36011100      0.43548400
H        1.51895300      2.16925300      1.49986800
H        0.79595700      3.14653200     -0.65891000
H        1.47620000      1.77238700     -1.53053100
H       -1.61326600      2.90228900     -0.77797500
H       -3.63084100      1.57535600     -0.23647200
H       -3.40522600     -0.77410600      0.57129800

B 2 1 F

--Link1--
%chk=mol_029_Z_scan_pt3.chk
%nprocshared=8
%mem=16GB
#p wB97XD/6-311+G(d,p) Geom=Check Guess=Read Stable=Opt Pop=NBO7Read Density=Current scrf=(smd,solvent=water)

mol_029_Z SP+NBO7/CMO after constrained opt at R0+0.15A  [oxime: C3=N2-O1]

1 1

$NBO CMO PRINT=2 E2PERT=0.05 BNDIDX $END

--Link1--
%chk=mol_029_Z_scan_pt4.chk
%nprocshared=8
%mem=16GB
#p wB97XD/6-311+G(d,p) opt=(ModRedundant) SCF=(Tight,XQC) NoSymm scrf=(smd,solvent=water)

mol_029_Z scan pt4 (R0+0.20A) rigid O-N displacement then constrained opt  [oxime: C3=N2-O1]

1 1
O        0.42655749     -2.53960568     -1.09877828
N        1.68968300     -1.67059500     -0.34929100
C        1.23797300     -0.56609200      0.11364900
C        2.30932000      0.31038400      0.71550000
C        1.97899300      1.80798400      0.57707900
C        1.01838500      2.08163000     -0.58398600
C       -0.24962400      1.30963900     -0.34817100
C       -1.51618300      1.87042700     -0.46109700
C       -2.64861700      1.12562100     -0.15197400
C       -2.53934900     -0.18703300      0.29279400
C       -1.27952300     -0.73546400      0.38664700
F       -1.15915100     -1.99337500      0.86725900
C       -0.12840900     -0.03194700      0.05282200
H        0.07892349     -3.21087868     -0.47857328
H        0.83681849     -3.01753068     -1.84288728
H        3.26035900      0.06631900      0.24059300
H        2.38751000      0.03232800      1.77011100
H        2.90863200      2.36011100      0.43548400
H        1.51895300      2.16925300      1.49986800
H        0.79595700      3.14653200     -0.65891000
H        1.47620000      1.77238700     -1.53053100
H       -1.61326600      2.90228900     -0.77797500
H       -3.63084100      1.57535600     -0.23647200
H       -3.40522600     -0.77410600      0.57129800

B 2 1 F

--Link1--
%chk=mol_029_Z_scan_pt4.chk
%nprocshared=8
%mem=16GB
#p wB97XD/6-311+G(d,p) Geom=Check Guess=Read Stable=Opt Pop=NBO7Read Density=Current scrf=(smd,solvent=water)

mol_029_Z SP+NBO7/CMO after constrained opt at R0+0.20A  [oxime: C3=N2-O1]

1 1

$NBO CMO PRINT=2 E2PERT=0.05 BNDIDX $END

--Link1--
%chk=mol_029_Z_scan_pt5.chk
%nprocshared=8
%mem=16GB
#p wB97XD/6-311+G(d,p) opt=(ModRedundant) SCF=(Tight,XQC) NoSymm scrf=(smd,solvent=water)

mol_029_Z scan pt5 (R0+0.25A) rigid O-N displacement then constrained opt  [oxime: C3=N2-O1]

1 1
O        0.38954987     -2.56506636     -1.12073710
N        1.68968300     -1.67059500     -0.34929100
C        1.23797300     -0.56609200      0.11364900
C        2.30932000      0.31038400      0.71550000
C        1.97899300      1.80798400      0.57707900
C        1.01838500      2.08163000     -0.58398600
C       -0.24962400      1.30963900     -0.34817100
C       -1.51618300      1.87042700     -0.46109700
C       -2.64861700      1.12562100     -0.15197400
C       -2.53934900     -0.18703300      0.29279400
C       -1.27952300     -0.73546400      0.38664700
F       -1.15915100     -1.99337500      0.86725900
C       -0.12840900     -0.03194700      0.05282200
H        0.04191587     -3.23633936     -0.50053210
H        0.79981087     -3.04299136     -1.86484610
H        3.26035900      0.06631900      0.24059300
H        2.38751000      0.03232800      1.77011100
H        2.90863200      2.36011100      0.43548400
H        1.51895300      2.16925300      1.49986800
H        0.79595700      3.14653200     -0.65891000
H        1.47620000      1.77238700     -1.53053100
H       -1.61326600      2.90228900     -0.77797500
H       -3.63084100      1.57535600     -0.23647200
H       -3.40522600     -0.77410600      0.57129800

B 2 1 F

--Link1--
%chk=mol_029_Z_scan_pt5.chk
%nprocshared=8
%mem=16GB
#p wB97XD/6-311+G(d,p) Geom=Check Guess=Read Stable=Opt Pop=NBO7Read Density=Current scrf=(smd,solvent=water)

mol_029_Z SP+NBO7/CMO after constrained opt at R0+0.25A  [oxime: C3=N2-O1]

1 1

$NBO CMO PRINT=2 E2PERT=0.05 BNDIDX $END

--Link1--
%chk=mol_029_Z_scan_pt6.chk
%nprocshared=8
%mem=16GB
#p wB97XD/6-311+G(d,p) opt=(ModRedundant) SCF=(Tight,XQC) NoSymm scrf=(smd,solvent=water)

mol_029_Z scan pt6 (R0+0.30A) rigid O-N displacement then constrained opt  [oxime: C3=N2-O1]

1 1
O        0.35254224     -2.59052703     -1.14269592
N        1.68968300     -1.67059500     -0.34929100
C        1.23797300     -0.56609200      0.11364900
C        2.30932000      0.31038400      0.71550000
C        1.97899300      1.80798400      0.57707900
C        1.01838500      2.08163000     -0.58398600
C       -0.24962400      1.30963900     -0.34817100
C       -1.51618300      1.87042700     -0.46109700
C       -2.64861700      1.12562100     -0.15197400
C       -2.53934900     -0.18703300      0.29279400
C       -1.27952300     -0.73546400      0.38664700
F       -1.15915100     -1.99337500      0.86725900
C       -0.12840900     -0.03194700      0.05282200
H        0.00490824     -3.26180003     -0.52249092
H        0.76280324     -3.06845203     -1.88680492
H        3.26035900      0.06631900      0.24059300
H        2.38751000      0.03232800      1.77011100
H        2.90863200      2.36011100      0.43548400
H        1.51895300      2.16925300      1.49986800
H        0.79595700      3.14653200     -0.65891000
H        1.47620000      1.77238700     -1.53053100
H       -1.61326600      2.90228900     -0.77797500
H       -3.63084100      1.57535600     -0.23647200
H       -3.40522600     -0.77410600      0.57129800

B 2 1 F

--Link1--
%chk=mol_029_Z_scan_pt6.chk
%nprocshared=8
%mem=16GB
#p wB97XD/6-311+G(d,p) Geom=Check Guess=Read Stable=Opt Pop=NBO7Read Density=Current scrf=(smd,solvent=water)

mol_029_Z SP+NBO7/CMO after constrained opt at R0+0.30A  [oxime: C3=N2-O1]

1 1

$NBO CMO PRINT=2 E2PERT=0.05 BNDIDX $END


