%chk=mol_029_Z_sp4.chk
%nprocshared=8
%mem=16GB
#p wB97XD/6-311+G(d,p) sp pop=nbo7read scrf=(smd,solvent=water)

mol_029_Z_sp4  R(N-O)=1.8066A  [oxime: C3=N2-O1]

1 1
O        0.16643400     -2.56536000     -1.12982200
N        1.56170500     -1.79823300     -0.27633200
C        1.15636200     -0.68619200      0.16333100
C        2.31823400      0.07019100      0.80585800
C        2.21291800      1.58156900      0.50448200
C        1.25853000      1.90971700     -0.64866800
C       -0.09425000      1.32267900     -0.35910900
C       -1.28634200      2.02607500     -0.48169900
C       -2.49431000      1.42377400     -0.14858500
C       -2.53863800      0.11622900      0.32366200
C       -1.35443500     -0.58087900      0.42910700
F       -1.37493200     -1.82842300      0.92831000
C       -0.13714100     -0.00860200      0.07946500
H        0.02866600     -3.38718200     -0.63032700
H        0.59777800     -2.83068900     -1.95860900
H        3.26309100     -0.34866600      0.46083400
H        2.23058500     -0.12732400      1.87650300
H        3.21061200      1.95640200      0.27613800
H        1.86008100      2.09248900      1.40250100
H        1.17838900      2.98956500     -0.77555800
H        1.64732400      1.49613500     -1.58582400
H       -1.26509800      3.05233500     -0.82894200
H       -3.41801700      1.98284000     -0.24004700
H       -3.46799400     -0.35695100      0.61437700

$NBO E2PERT BNDIDX NBOSUM CMO $END


