%chk=mol_029_Z_sp3.chk
%nprocshared=8
%mem=16GB
#p wB97XD/6-311+G(d,p) sp pop=nbo7read scrf=(smd,solvent=water)

mol_029_Z_sp3  R(N-O)=1.7066A  [oxime: C3=N2-O1]

1 1
O        0.21838800     -2.52238000     -1.09426700
N        1.55405300     -1.80448700     -0.31130800
C        1.17044700     -0.68075400      0.14117800
C        2.32509200      0.08205900      0.76903100
C        2.18252800      1.60061200      0.53186600
C        1.23727800      1.93999800     -0.62510600
C       -0.10722500      1.32478400     -0.35509200
C       -1.30853900      2.01366900     -0.47222200
C       -2.50982100      1.39445600     -0.14626300
C       -2.53761200      0.08309300      0.31621300
C       -1.34359700     -0.59660500      0.41495600
F       -1.34951900     -1.85215200      0.90484300
C       -0.13083600     -0.01269400      0.06931800
H       -0.09859700     -3.21538200     -0.48850600
H        0.64635800     -2.98141700     -1.83698800
H        3.26548100     -0.30232100      0.37429100
H        2.28984400     -0.14941500      1.83631300
H        3.17231200      2.01442100      0.33826400
H        1.79853200      2.06837400      1.44085700
H        1.13851500      3.02070300     -0.73089800
H        1.64172300      1.55216800     -1.56670300
H       -1.29983000      3.04373700     -0.80864900
H       -3.44026400      1.94273100     -0.23450500
H       -3.46015800     -0.40548600      0.60296200

$NBO E2PERT BNDIDX NBOSUM CMO $END


