%chk=mol_008_Z_opt.chk
%nprocshared=8
%mem=16GB
#p wB97XD/6-311+G(d,p) opt scrf=(smd,solvent=water)

mol_008_Z opt  [oxime: C12=N13-O14]

1 1
O        4.36770000     -0.78760000     -0.21850000
N        3.79830000      0.26910000      0.00740000
O        4.34180000      1.34460000      0.21000000
C        2.30930000      0.24550000      0.03940000
C        1.64330000      1.43620000      0.29760000
C        0.26550000      1.43660000      0.33250000
C       -0.41260000      0.23830000      0.09800000
C        0.28170000     -0.95900000     -0.15250000
C        1.66640000     -0.95610000     -0.18360000
C       -0.63130000     -2.11460000     -0.37370000
C       -2.03420000     -1.57390000     -0.02130000
C       -1.83840000     -0.05940000      0.06970000
N       -2.94710000      0.55730000      0.06520000
O       -2.65360000      2.22740000      0.16030000
H        2.20780000      2.33630000      0.47110000
H       -0.24330000      2.36020000      0.55500000
H        2.24690000     -1.84600000     -0.37030000
H       -0.34920000     -2.98040000      0.22100000
H       -0.59120000     -2.43470000     -1.41490000
H       -2.80210000     -1.84700000     -0.73710000
H       -2.36450000     -1.92950000      0.95170000
H       -2.89740000      2.54030000     -0.73320000
H       -3.36350000      2.49620000      0.77510000


