%chk=mol_008_Z_scan_pt1.chk
%nprocshared=8
%mem=16GB
#p wB97XD/6-311+G(d,p) opt=(ModRedundant) SCF=(Tight,XQC) NoSymm scrf=(smd,solvent=water)

mol_008_Z scan pt1 (R0+0.05A) rigid O-N displacement then constrained opt  [oxime: C12=N13-O14]

1 1
O        3.82751700      0.90125700     -0.08545100
N        3.23586600     -0.15796700      0.01041700
O        3.79287500     -1.23406300      0.12508700
C        1.76307200     -0.13608800     -0.01133100
C        1.09030200     -1.34748100     -0.13032900
C       -0.29290400     -1.34431100     -0.15368600
C       -0.96048900     -0.12072900     -0.05650000
C       -0.26042100      1.08549800      0.05974500
C        1.12618900      1.08891600      0.08272300
C       -1.17693300      2.26753100      0.16686400
C       -2.55834500      1.69400700     -0.18516300
C       -2.39533200      0.20005800     -0.06526100
N       -3.46493900     -0.49467100      0.02380800
O       -3.08177577     -1.99734291      0.11404659
H        1.64019200     -2.27457900     -0.21068700
H       -0.82349100     -2.27802800     -0.25830700
H        1.68800200      2.00884800      0.17206300
H       -0.87954800      3.07714800     -0.49981000
H       -1.16135800      2.65389000      1.18917500
H       -3.36889900      2.06706700      0.43844900
H       -2.80625200      1.90502700     -1.22945900
H       -3.09061577     -2.26728791      1.05305859
H       -3.79095677     -2.49051191     -0.33684641

B 13 14 F

--Link1--
%chk=mol_008_Z_scan_pt1.chk
%nprocshared=8
%mem=16GB
#p wB97XD/6-311+G(d,p) Geom=Check Guess=Read Stable=Opt Pop=NBO7Read Density=Current scrf=(smd,solvent=water)

mol_008_Z SP+NBO7/CMO after constrained opt at R0+0.05A  [oxime: C12=N13-O14]

1 1

$NBO CMO PRINT=2 E2PERT=0.05 BNDIDX $END

--Link1--
%chk=mol_008_Z_scan_pt2.chk
%nprocshared=8
%mem=16GB
#p wB97XD/6-311+G(d,p) opt=(ModRedundant) SCF=(Tight,XQC) NoSymm scrf=(smd,solvent=water)

mol_008_Z scan pt2 (R0+0.10A) rigid O-N displacement then constrained opt  [oxime: C12=N13-O14]

1 1
O        3.82751700      0.90125700     -0.08545100
N        3.23586600     -0.15796700      0.01041700
O        3.79287500     -1.23406300      0.12508700
C        1.76307200     -0.13608800     -0.01133100
C        1.09030200     -1.34748100     -0.13032900
C       -0.29290400     -1.34431100     -0.15368600
C       -0.96048900     -0.12072900     -0.05650000
C       -0.26042100      1.08549800      0.05974500
C        1.12618900      1.08891600      0.08272300
C       -1.17693300      2.26753100      0.16686400
C       -2.55834500      1.69400700     -0.18516300
C       -2.39533200      0.20005800     -0.06526100
N       -3.46493900     -0.49467100      0.02380800
O       -3.06944253     -2.04571082      0.11695119
H        1.64019200     -2.27457900     -0.21068700
H       -0.82349100     -2.27802800     -0.25830700
H        1.68800200      2.00884800      0.17206300
H       -0.87954800      3.07714800     -0.49981000
H       -1.16135800      2.65389000      1.18917500
H       -3.36889900      2.06706700      0.43844900
H       -2.80625200      1.90502700     -1.22945900
H       -3.07828253     -2.31565582      1.05596319
H       -3.77862353     -2.53887982     -0.33394181

B 13 14 F

--Link1--
%chk=mol_008_Z_scan_pt2.chk
%nprocshared=8
%mem=16GB
#p wB97XD/6-311+G(d,p) Geom=Check Guess=Read Stable=Opt Pop=NBO7Read Density=Current scrf=(smd,solvent=water)

mol_008_Z SP+NBO7/CMO after constrained opt at R0+0.10A  [oxime: C12=N13-O14]

1 1

$NBO CMO PRINT=2 E2PERT=0.05 BNDIDX $END

--Link1--
%chk=mol_008_Z_scan_pt3.chk
%nprocshared=8
%mem=16GB
#p wB97XD/6-311+G(d,p) opt=(ModRedundant) SCF=(Tight,XQC) NoSymm scrf=(smd,solvent=water)

mol_008_Z scan pt3 (R0+0.15A) rigid O-N displacement then constrained opt  [oxime: C12=N13-O14]

1 1
O        3.82751700      0.90125700     -0.08545100
N        3.23586600     -0.15796700      0.01041700
O        3.79287500     -1.23406300      0.12508700
C        1.76307200     -0.13608800     -0.01133100
C        1.09030200     -1.34748100     -0.13032900
C       -0.29290400     -1.34431100     -0.15368600
C       -0.96048900     -0.12072900     -0.05650000
C       -0.26042100      1.08549800      0.05974500
C        1.12618900      1.08891600      0.08272300
C       -1.17693300      2.26753100      0.16686400
C       -2.55834500      1.69400700     -0.18516300
C       -2.39533200      0.20005800     -0.06526100
N       -3.46493900     -0.49467100      0.02380800
O       -3.05710930     -2.09407873      0.11985578
H        1.64019200     -2.27457900     -0.21068700
H       -0.82349100     -2.27802800     -0.25830700
H        1.68800200      2.00884800      0.17206300
H       -0.87954800      3.07714800     -0.49981000
H       -1.16135800      2.65389000      1.18917500
H       -3.36889900      2.06706700      0.43844900
H       -2.80625200      1.90502700     -1.22945900
H       -3.06594930     -2.36402373      1.05886778
H       -3.76629030     -2.58724773     -0.33103722

B 13 14 F

--Link1--
%chk=mol_008_Z_scan_pt3.chk
%nprocshared=8
%mem=16GB
#p wB97XD/6-311+G(d,p) Geom=Check Guess=Read Stable=Opt Pop=NBO7Read Density=Current scrf=(smd,solvent=water)

mol_008_Z SP+NBO7/CMO after constrained opt at R0+0.15A  [oxime: C12=N13-O14]

1 1

$NBO CMO PRINT=2 E2PERT=0.05 BNDIDX $END

--Link1--
%chk=mol_008_Z_scan_pt4.chk
%nprocshared=8
%mem=16GB
#p wB97XD/6-311+G(d,p) opt=(ModRedundant) SCF=(Tight,XQC) NoSymm scrf=(smd,solvent=water)

mol_008_Z scan pt4 (R0+0.20A) rigid O-N displacement then constrained opt  [oxime: C12=N13-O14]

1 1
O        3.82751700      0.90125700     -0.08545100
N        3.23586600     -0.15796700      0.01041700
O        3.79287500     -1.23406300      0.12508700
C        1.76307200     -0.13608800     -0.01133100
C        1.09030200     -1.34748100     -0.13032900
C       -0.29290400     -1.34431100     -0.15368600
C       -0.96048900     -0.12072900     -0.05650000
C       -0.26042100      1.08549800      0.05974500
C        1.12618900      1.08891600      0.08272300
C       -1.17693300      2.26753100      0.16686400
C       -2.55834500      1.69400700     -0.18516300
C       -2.39533200      0.20005800     -0.06526100
N       -3.46493900     -0.49467100      0.02380800
O       -3.04477606     -2.14244664      0.12276038
H        1.64019200     -2.27457900     -0.21068700
H       -0.82349100     -2.27802800     -0.25830700
H        1.68800200      2.00884800      0.17206300
H       -0.87954800      3.07714800     -0.49981000
H       -1.16135800      2.65389000      1.18917500
H       -3.36889900      2.06706700      0.43844900
H       -2.80625200      1.90502700     -1.22945900
H       -3.05361606     -2.41239164      1.06177238
H       -3.75395706     -2.63561564     -0.32813262

B 13 14 F

--Link1--
%chk=mol_008_Z_scan_pt4.chk
%nprocshared=8
%mem=16GB
#p wB97XD/6-311+G(d,p) Geom=Check Guess=Read Stable=Opt Pop=NBO7Read Density=Current scrf=(smd,solvent=water)

mol_008_Z SP+NBO7/CMO after constrained opt at R0+0.20A  [oxime: C12=N13-O14]

1 1

$NBO CMO PRINT=2 E2PERT=0.05 BNDIDX $END

--Link1--
%chk=mol_008_Z_scan_pt5.chk
%nprocshared=8
%mem=16GB
#p wB97XD/6-311+G(d,p) opt=(ModRedundant) SCF=(Tight,XQC) NoSymm scrf=(smd,solvent=water)

mol_008_Z scan pt5 (R0+0.25A) rigid O-N displacement then constrained opt  [oxime: C12=N13-O14]

1 1
O        3.82751700      0.90125700     -0.08545100
N        3.23586600     -0.15796700      0.01041700
O        3.79287500     -1.23406300      0.12508700
C        1.76307200     -0.13608800     -0.01133100
C        1.09030200     -1.34748100     -0.13032900
C       -0.29290400     -1.34431100     -0.15368600
C       -0.96048900     -0.12072900     -0.05650000
C       -0.26042100      1.08549800      0.05974500
C        1.12618900      1.08891600      0.08272300
C       -1.17693300      2.26753100      0.16686400
C       -2.55834500      1.69400700     -0.18516300
C       -2.39533200      0.20005800     -0.06526100
N       -3.46493900     -0.49467100      0.02380800
O       -3.03244283     -2.19081455      0.12566497
H        1.64019200     -2.27457900     -0.21068700
H       -0.82349100     -2.27802800     -0.25830700
H        1.68800200      2.00884800      0.17206300
H       -0.87954800      3.07714800     -0.49981000
H       -1.16135800      2.65389000      1.18917500
H       -3.36889900      2.06706700      0.43844900
H       -2.80625200      1.90502700     -1.22945900
H       -3.04128283     -2.46075955      1.06467697
H       -3.74162383     -2.68398355     -0.32522803

B 13 14 F

--Link1--
%chk=mol_008_Z_scan_pt5.chk
%nprocshared=8
%mem=16GB
#p wB97XD/6-311+G(d,p) Geom=Check Guess=Read Stable=Opt Pop=NBO7Read Density=Current scrf=(smd,solvent=water)

mol_008_Z SP+NBO7/CMO after constrained opt at R0+0.25A  [oxime: C12=N13-O14]

1 1

$NBO CMO PRINT=2 E2PERT=0.05 BNDIDX $END

--Link1--
%chk=mol_008_Z_scan_pt6.chk
%nprocshared=8
%mem=16GB
#p wB97XD/6-311+G(d,p) opt=(ModRedundant) SCF=(Tight,XQC) NoSymm scrf=(smd,solvent=water)

mol_008_Z scan pt6 (R0+0.30A) rigid O-N displacement then constrained opt  [oxime: C12=N13-O14]

1 1
O        3.82751700      0.90125700     -0.08545100
N        3.23586600     -0.15796700      0.01041700
O        3.79287500     -1.23406300      0.12508700
C        1.76307200     -0.13608800     -0.01133100
C        1.09030200     -1.34748100     -0.13032900
C       -0.29290400     -1.34431100     -0.15368600
C       -0.96048900     -0.12072900     -0.05650000
C       -0.26042100      1.08549800      0.05974500
C        1.12618900      1.08891600      0.08272300
C       -1.17693300      2.26753100      0.16686400
C       -2.55834500      1.69400700     -0.18516300
C       -2.39533200      0.20005800     -0.06526100
N       -3.46493900     -0.49467100      0.02380800
O       -3.02010959     -2.23918246      0.12856957
H        1.64019200     -2.27457900     -0.21068700
H       -0.82349100     -2.27802800     -0.25830700
H        1.68800200      2.00884800      0.17206300
H       -0.87954800      3.07714800     -0.49981000
H       -1.16135800      2.65389000      1.18917500
H       -3.36889900      2.06706700      0.43844900
H       -2.80625200      1.90502700     -1.22945900
H       -3.02894959     -2.50912746      1.06758157
H       -3.72929059     -2.73235146     -0.32232343

B 13 14 F

--Link1--
%chk=mol_008_Z_scan_pt6.chk
%nprocshared=8
%mem=16GB
#p wB97XD/6-311+G(d,p) Geom=Check Guess=Read Stable=Opt Pop=NBO7Read Density=Current scrf=(smd,solvent=water)

mol_008_Z SP+NBO7/CMO after constrained opt at R0+0.30A  [oxime: C12=N13-O14]

1 1

$NBO CMO PRINT=2 E2PERT=0.05 BNDIDX $END


