%chk=mol_005_Z_scan_pt1.chk
%nprocshared=8
%mem=16GB
#p wB97XD/6-311+G(d,p) opt=(ModRedundant) SCF=(Tight,XQC) NoSymm scrf=(smd,solvent=water)

mol_005_Z scan pt1 (R0+0.05A) rigid O-N displacement then constrained opt  [oxime: C3=N2-O1]

1 1
O       -3.46868311     -2.02015098      0.10845863
N       -3.86385800     -0.51651800      0.02070800
C       -2.79605000      0.18540500     -0.05658800
C       -2.98036700      1.67901500     -0.17579100
C       -1.59506400      2.27229100      0.12567200
C       -0.67077700      1.09411600      0.04039200
C        0.71721000      1.11302700      0.05983500
C        1.38158600     -0.10158200     -0.00987000
Br       3.28167800     -0.11205100      0.00901200
C        0.70647800     -1.32002600     -0.09613900
C       -0.67703800     -1.33439200     -0.11123700
C       -1.36509700     -0.11821900     -0.04453200
H       -3.48613811     -2.29288698      1.04598363
H       -4.17061111     -2.51537098     -0.35059437
H       -3.27408000      1.88745500     -1.20812300
H       -3.77000600      2.04234600      0.48004800
H       -1.31818600      3.05936200     -0.57639700
H       -1.55956300      2.69736100      1.13194200
H        1.25616600      2.04990000      0.12492500
H        1.25565900     -2.25084700     -0.15290700
H       -1.19391000     -2.27931900     -0.18521300

B 2 1 F

--Link1--
%chk=mol_005_Z_scan_pt1.chk
%nprocshared=8
%mem=16GB
#p wB97XD/6-311+G(d,p) Geom=Check Guess=Read Stable=Opt Pop=NBO7Read Density=Current scrf=(smd,solvent=water)

mol_005_Z SP+NBO7/CMO after constrained opt at R0+0.05A  [oxime: C3=N2-O1]

1 1

$NBO CMO PRINT=2 E2PERT=0.05 BNDIDX $END

--Link1--
%chk=mol_005_Z_scan_pt2.chk
%nprocshared=8
%mem=16GB
#p wB97XD/6-311+G(d,p) opt=(ModRedundant) SCF=(Tight,XQC) NoSymm scrf=(smd,solvent=water)

mol_005_Z scan pt2 (R0+0.10A) rigid O-N displacement then constrained opt  [oxime: C3=N2-O1]

1 1
O       -3.45599422     -2.06843196      0.11127627
N       -3.86385800     -0.51651800      0.02070800
C       -2.79605000      0.18540500     -0.05658800
C       -2.98036700      1.67901500     -0.17579100
C       -1.59506400      2.27229100      0.12567200
C       -0.67077700      1.09411600      0.04039200
C        0.71721000      1.11302700      0.05983500
C        1.38158600     -0.10158200     -0.00987000
Br       3.28167800     -0.11205100      0.00901200
C        0.70647800     -1.32002600     -0.09613900
C       -0.67703800     -1.33439200     -0.11123700
C       -1.36509700     -0.11821900     -0.04453200
H       -3.47344922     -2.34116796      1.04880127
H       -4.15792222     -2.56365196     -0.34777673
H       -3.27408000      1.88745500     -1.20812300
H       -3.77000600      2.04234600      0.48004800
H       -1.31818600      3.05936200     -0.57639700
H       -1.55956300      2.69736100      1.13194200
H        1.25616600      2.04990000      0.12492500
H        1.25565900     -2.25084700     -0.15290700
H       -1.19391000     -2.27931900     -0.18521300

B 2 1 F

--Link1--
%chk=mol_005_Z_scan_pt2.chk
%nprocshared=8
%mem=16GB
#p wB97XD/6-311+G(d,p) Geom=Check Guess=Read Stable=Opt Pop=NBO7Read Density=Current scrf=(smd,solvent=water)

mol_005_Z SP+NBO7/CMO after constrained opt at R0+0.10A  [oxime: C3=N2-O1]

1 1

$NBO CMO PRINT=2 E2PERT=0.05 BNDIDX $END

--Link1--
%chk=mol_005_Z_scan_pt3.chk
%nprocshared=8
%mem=16GB
#p wB97XD/6-311+G(d,p) opt=(ModRedundant) SCF=(Tight,XQC) NoSymm scrf=(smd,solvent=water)

mol_005_Z scan pt3 (R0+0.15A) rigid O-N displacement then constrained opt  [oxime: C3=N2-O1]

1 1
O       -3.44330533     -2.11671294      0.11409390
N       -3.86385800     -0.51651800      0.02070800
C       -2.79605000      0.18540500     -0.05658800
C       -2.98036700      1.67901500     -0.17579100
C       -1.59506400      2.27229100      0.12567200
C       -0.67077700      1.09411600      0.04039200
C        0.71721000      1.11302700      0.05983500
C        1.38158600     -0.10158200     -0.00987000
Br       3.28167800     -0.11205100      0.00901200
C        0.70647800     -1.32002600     -0.09613900
C       -0.67703800     -1.33439200     -0.11123700
C       -1.36509700     -0.11821900     -0.04453200
H       -3.46076033     -2.38944894      1.05161890
H       -4.14523333     -2.61193294     -0.34495910
H       -3.27408000      1.88745500     -1.20812300
H       -3.77000600      2.04234600      0.48004800
H       -1.31818600      3.05936200     -0.57639700
H       -1.55956300      2.69736100      1.13194200
H        1.25616600      2.04990000      0.12492500
H        1.25565900     -2.25084700     -0.15290700
H       -1.19391000     -2.27931900     -0.18521300

B 2 1 F

--Link1--
%chk=mol_005_Z_scan_pt3.chk
%nprocshared=8
%mem=16GB
#p wB97XD/6-311+G(d,p) Geom=Check Guess=Read Stable=Opt Pop=NBO7Read Density=Current scrf=(smd,solvent=water)

mol_005_Z SP+NBO7/CMO after constrained opt at R0+0.15A  [oxime: C3=N2-O1]

1 1

$NBO CMO PRINT=2 E2PERT=0.05 BNDIDX $END

--Link1--
%chk=mol_005_Z_scan_pt4.chk
%nprocshared=8
%mem=16GB
#p wB97XD/6-311+G(d,p) opt=(ModRedundant) SCF=(Tight,XQC) NoSymm scrf=(smd,solvent=water)

mol_005_Z scan pt4 (R0+0.20A) rigid O-N displacement then constrained opt  [oxime: C3=N2-O1]

1 1
O       -3.43061645     -2.16499392      0.11691153
N       -3.86385800     -0.51651800      0.02070800
C       -2.79605000      0.18540500     -0.05658800
C       -2.98036700      1.67901500     -0.17579100
C       -1.59506400      2.27229100      0.12567200
C       -0.67077700      1.09411600      0.04039200
C        0.71721000      1.11302700      0.05983500
C        1.38158600     -0.10158200     -0.00987000
Br       3.28167800     -0.11205100      0.00901200
C        0.70647800     -1.32002600     -0.09613900
C       -0.67703800     -1.33439200     -0.11123700
C       -1.36509700     -0.11821900     -0.04453200
H       -3.44807145     -2.43772992      1.05443653
H       -4.13254445     -2.66021392     -0.34214147
H       -3.27408000      1.88745500     -1.20812300
H       -3.77000600      2.04234600      0.48004800
H       -1.31818600      3.05936200     -0.57639700
H       -1.55956300      2.69736100      1.13194200
H        1.25616600      2.04990000      0.12492500
H        1.25565900     -2.25084700     -0.15290700
H       -1.19391000     -2.27931900     -0.18521300

B 2 1 F

--Link1--
%chk=mol_005_Z_scan_pt4.chk
%nprocshared=8
%mem=16GB
#p wB97XD/6-311+G(d,p) Geom=Check Guess=Read Stable=Opt Pop=NBO7Read Density=Current scrf=(smd,solvent=water)

mol_005_Z SP+NBO7/CMO after constrained opt at R0+0.20A  [oxime: C3=N2-O1]

1 1

$NBO CMO PRINT=2 E2PERT=0.05 BNDIDX $END

--Link1--
%chk=mol_005_Z_scan_pt5.chk
%nprocshared=8
%mem=16GB
#p wB97XD/6-311+G(d,p) opt=(ModRedundant) SCF=(Tight,XQC) NoSymm scrf=(smd,solvent=water)

mol_005_Z scan pt5 (R0+0.25A) rigid O-N displacement then constrained opt  [oxime: C3=N2-O1]

1 1
O       -3.41792756     -2.21327490      0.11972917
N       -3.86385800     -0.51651800      0.02070800
C       -2.79605000      0.18540500     -0.05658800
C       -2.98036700      1.67901500     -0.17579100
C       -1.59506400      2.27229100      0.12567200
C       -0.67077700      1.09411600      0.04039200
C        0.71721000      1.11302700      0.05983500
C        1.38158600     -0.10158200     -0.00987000
Br       3.28167800     -0.11205100      0.00901200
C        0.70647800     -1.32002600     -0.09613900
C       -0.67703800     -1.33439200     -0.11123700
C       -1.36509700     -0.11821900     -0.04453200
H       -3.43538256     -2.48601090      1.05725417
H       -4.11985556     -2.70849490     -0.33932383
H       -3.27408000      1.88745500     -1.20812300
H       -3.77000600      2.04234600      0.48004800
H       -1.31818600      3.05936200     -0.57639700
H       -1.55956300      2.69736100      1.13194200
H        1.25616600      2.04990000      0.12492500
H        1.25565900     -2.25084700     -0.15290700
H       -1.19391000     -2.27931900     -0.18521300

B 2 1 F

--Link1--
%chk=mol_005_Z_scan_pt5.chk
%nprocshared=8
%mem=16GB
#p wB97XD/6-311+G(d,p) Geom=Check Guess=Read Stable=Opt Pop=NBO7Read Density=Current scrf=(smd,solvent=water)

mol_005_Z SP+NBO7/CMO after constrained opt at R0+0.25A  [oxime: C3=N2-O1]

1 1

$NBO CMO PRINT=2 E2PERT=0.05 BNDIDX $END

--Link1--
%chk=mol_005_Z_scan_pt6.chk
%nprocshared=8
%mem=16GB
#p wB97XD/6-311+G(d,p) opt=(ModRedundant) SCF=(Tight,XQC) NoSymm scrf=(smd,solvent=water)

mol_005_Z scan pt6 (R0+0.30A) rigid O-N displacement then constrained opt  [oxime: C3=N2-O1]

1 1
O       -3.40523867     -2.26155588      0.12254680
N       -3.86385800     -0.51651800      0.02070800
C       -2.79605000      0.18540500     -0.05658800
C       -2.98036700      1.67901500     -0.17579100
C       -1.59506400      2.27229100      0.12567200
C       -0.67077700      1.09411600      0.04039200
C        0.71721000      1.11302700      0.05983500
C        1.38158600     -0.10158200     -0.00987000
Br       3.28167800     -0.11205100      0.00901200
C        0.70647800     -1.32002600     -0.09613900
C       -0.67703800     -1.33439200     -0.11123700
C       -1.36509700     -0.11821900     -0.04453200
H       -3.42269367     -2.53429188      1.06007180
H       -4.10716667     -2.75677588     -0.33650620
H       -3.27408000      1.88745500     -1.20812300
H       -3.77000600      2.04234600      0.48004800
H       -1.31818600      3.05936200     -0.57639700
H       -1.55956300      2.69736100      1.13194200
H        1.25616600      2.04990000      0.12492500
H        1.25565900     -2.25084700     -0.15290700
H       -1.19391000     -2.27931900     -0.18521300

B 2 1 F

--Link1--
%chk=mol_005_Z_scan_pt6.chk
%nprocshared=8
%mem=16GB
#p wB97XD/6-311+G(d,p) Geom=Check Guess=Read Stable=Opt Pop=NBO7Read Density=Current scrf=(smd,solvent=water)

mol_005_Z SP+NBO7/CMO after constrained opt at R0+0.30A  [oxime: C3=N2-O1]

1 1

$NBO CMO PRINT=2 E2PERT=0.05 BNDIDX $END


