27
mol_028_Z_opt
C        2.378500     -1.027200      0.863000
C        1.531300      0.135300      0.427700
C        2.073300      1.413100      0.528700
C        1.315300      2.542800      0.273600
C       -0.021300      2.425000     -0.075100
C       -0.608400      1.177500     -0.184300
C        0.184900      0.025000      0.017900
C       -0.511300     -1.232000     -0.240200
N       -0.203300     -2.257200     -0.933600
O        1.279800     -2.090700     -1.572700
C       -1.931600     -1.410800      0.277900
C       -2.649400     -0.071800      0.457400
C       -2.075700      1.012700     -0.446800
H        3.248100     -1.157900      0.217300
H        1.841400     -1.968800      0.915100
H        2.763300     -0.820400      1.859300
H        3.102800      1.514100      0.845000
H        1.761200      3.523300      0.369600
H       -0.619400      3.311300     -0.239200
H        1.372500     -1.142200     -1.825300
H        1.192500     -2.651400     -2.362500
H       -2.455800     -2.084100     -0.398700
H       -1.848700     -1.928600      1.233300
H       -2.560500      0.254600      1.493000
H       -3.709100     -0.210000      0.259200
H       -2.593100      1.952300     -0.263100
H       -2.257200      0.766000     -1.496400
