%chk=mol_031_Z_scan_pt1.chk
%nprocshared=10
%mem=16GB
#p wB97XD/6-311+G(d,p) opt=(ModRedundant) SCF=(Tight,XQC) NoSymm scrf=(smd,solvent=water)

mol_031_Z scan pt1 (R0+0.05A) rigid O-N displacement then constrained opt  [oxime: C3=N2-O1]

1 1
O       -2.61844306     -1.71521272      0.62896367
N       -2.74372900     -0.26763100      0.04565400
C       -1.59163900      0.19768000     -0.26083400
C       -1.66739600      1.62756700     -0.71264700
C       -0.79021600      2.44117400      0.24043400
C        0.66316100      1.99167700      0.15494500
C        0.82384100      0.49631500      0.04599700
C        2.09373100     -0.06274800      0.10161100
F        3.13838800      0.77023400      0.31566900
C        2.35494300     -1.40497300     -0.06517400
C        1.28654200     -2.25767400     -0.31886200
C       -0.00448900     -1.76115400     -0.36663600
C       -0.24374500     -0.39456500     -0.16784200
H       -3.48337806     -2.13839872      0.48252467
H       -2.48156806     -1.65857372      1.59426167
H       -1.28003800      1.68285300     -1.73483100
H       -2.70000800      1.97422000     -0.70630000
H       -1.16673400      2.32205400      1.26096700
H       -0.86710500      3.49927600     -0.01374200
H        1.22728700      2.35867600      1.01489300
H        1.13184600      2.43241700     -0.73250000
H        3.37445400     -1.76699100     -0.01080100
H        1.46654800     -3.31319300     -0.48040300
H       -0.82153400     -2.43140000     -0.58605900

B 2 1 F

--Link1--
%chk=mol_031_Z_scan_pt1.chk
%nprocshared=10
%mem=16GB
#p wB97XD/6-311+G(d,p) Geom=Check Guess=Read Stable=Opt Pop=NBO7Read Density=Current scrf=(smd,solvent=water)

mol_031_Z SP+NBO7/CMO after constrained opt at R0+0.05A  [oxime: C3=N2-O1]

1 1

$NBO CMO PRINT=2 E2PERT=0.05 BNDIDX $END

--Link1--
%chk=mol_031_Z_scan_pt2.chk
%nprocshared=10
%mem=16GB
#p wB97XD/6-311+G(d,p) opt=(ModRedundant) SCF=(Tight,XQC) NoSymm scrf=(smd,solvent=water)

mol_031_Z scan pt2 (R0+0.10A) rigid O-N displacement then constrained opt  [oxime: C3=N2-O1]

1 1
O       -2.61444213     -1.76144045      0.64759134
N       -2.74372900     -0.26763100      0.04565400
C       -1.59163900      0.19768000     -0.26083400
C       -1.66739600      1.62756700     -0.71264700
C       -0.79021600      2.44117400      0.24043400
C        0.66316100      1.99167700      0.15494500
C        0.82384100      0.49631500      0.04599700
C        2.09373100     -0.06274800      0.10161100
F        3.13838800      0.77023400      0.31566900
C        2.35494300     -1.40497300     -0.06517400
C        1.28654200     -2.25767400     -0.31886200
C       -0.00448900     -1.76115400     -0.36663600
C       -0.24374500     -0.39456500     -0.16784200
H       -3.47937713     -2.18462645      0.50115234
H       -2.47756713     -1.70480145      1.61288934
H       -1.28003800      1.68285300     -1.73483100
H       -2.70000800      1.97422000     -0.70630000
H       -1.16673400      2.32205400      1.26096700
H       -0.86710500      3.49927600     -0.01374200
H        1.22728700      2.35867600      1.01489300
H        1.13184600      2.43241700     -0.73250000
H        3.37445400     -1.76699100     -0.01080100
H        1.46654800     -3.31319300     -0.48040300
H       -0.82153400     -2.43140000     -0.58605900

B 2 1 F

--Link1--
%chk=mol_031_Z_scan_pt2.chk
%nprocshared=10
%mem=16GB
#p wB97XD/6-311+G(d,p) Geom=Check Guess=Read Stable=Opt Pop=NBO7Read Density=Current scrf=(smd,solvent=water)

mol_031_Z SP+NBO7/CMO after constrained opt at R0+0.10A  [oxime: C3=N2-O1]

1 1

$NBO CMO PRINT=2 E2PERT=0.05 BNDIDX $END

--Link1--
%chk=mol_031_Z_scan_pt3.chk
%nprocshared=10
%mem=16GB
#p wB97XD/6-311+G(d,p) opt=(ModRedundant) SCF=(Tight,XQC) NoSymm scrf=(smd,solvent=water)

mol_031_Z scan pt3 (R0+0.15A) rigid O-N displacement then constrained opt  [oxime: C3=N2-O1]

1 1
O       -2.61044119     -1.80766817      0.66621902
N       -2.74372900     -0.26763100      0.04565400
C       -1.59163900      0.19768000     -0.26083400
C       -1.66739600      1.62756700     -0.71264700
C       -0.79021600      2.44117400      0.24043400
C        0.66316100      1.99167700      0.15494500
C        0.82384100      0.49631500      0.04599700
C        2.09373100     -0.06274800      0.10161100
F        3.13838800      0.77023400      0.31566900
C        2.35494300     -1.40497300     -0.06517400
C        1.28654200     -2.25767400     -0.31886200
C       -0.00448900     -1.76115400     -0.36663600
C       -0.24374500     -0.39456500     -0.16784200
H       -3.47537619     -2.23085417      0.51978002
H       -2.47356619     -1.75102917      1.63151702
H       -1.28003800      1.68285300     -1.73483100
H       -2.70000800      1.97422000     -0.70630000
H       -1.16673400      2.32205400      1.26096700
H       -0.86710500      3.49927600     -0.01374200
H        1.22728700      2.35867600      1.01489300
H        1.13184600      2.43241700     -0.73250000
H        3.37445400     -1.76699100     -0.01080100
H        1.46654800     -3.31319300     -0.48040300
H       -0.82153400     -2.43140000     -0.58605900

B 2 1 F

--Link1--
%chk=mol_031_Z_scan_pt3.chk
%nprocshared=10
%mem=16GB
#p wB97XD/6-311+G(d,p) Geom=Check Guess=Read Stable=Opt Pop=NBO7Read Density=Current scrf=(smd,solvent=water)

mol_031_Z SP+NBO7/CMO after constrained opt at R0+0.15A  [oxime: C3=N2-O1]

1 1

$NBO CMO PRINT=2 E2PERT=0.05 BNDIDX $END

--Link1--
%chk=mol_031_Z_scan_pt4.chk
%nprocshared=10
%mem=16GB
#p wB97XD/6-311+G(d,p) opt=(ModRedundant) SCF=(Tight,XQC) NoSymm scrf=(smd,solvent=water)

mol_031_Z scan pt4 (R0+0.20A) rigid O-N displacement then constrained opt  [oxime: C3=N2-O1]

1 1
O       -2.60644025     -1.85389589      0.68484669
N       -2.74372900     -0.26763100      0.04565400
C       -1.59163900      0.19768000     -0.26083400
C       -1.66739600      1.62756700     -0.71264700
C       -0.79021600      2.44117400      0.24043400
C        0.66316100      1.99167700      0.15494500
C        0.82384100      0.49631500      0.04599700
C        2.09373100     -0.06274800      0.10161100
F        3.13838800      0.77023400      0.31566900
C        2.35494300     -1.40497300     -0.06517400
C        1.28654200     -2.25767400     -0.31886200
C       -0.00448900     -1.76115400     -0.36663600
C       -0.24374500     -0.39456500     -0.16784200
H       -3.47137525     -2.27708189      0.53840769
H       -2.46956525     -1.79725689      1.65014469
H       -1.28003800      1.68285300     -1.73483100
H       -2.70000800      1.97422000     -0.70630000
H       -1.16673400      2.32205400      1.26096700
H       -0.86710500      3.49927600     -0.01374200
H        1.22728700      2.35867600      1.01489300
H        1.13184600      2.43241700     -0.73250000
H        3.37445400     -1.76699100     -0.01080100
H        1.46654800     -3.31319300     -0.48040300
H       -0.82153400     -2.43140000     -0.58605900

B 2 1 F

--Link1--
%chk=mol_031_Z_scan_pt4.chk
%nprocshared=10
%mem=16GB
#p wB97XD/6-311+G(d,p) Geom=Check Guess=Read Stable=Opt Pop=NBO7Read Density=Current scrf=(smd,solvent=water)

mol_031_Z SP+NBO7/CMO after constrained opt at R0+0.20A  [oxime: C3=N2-O1]

1 1

$NBO CMO PRINT=2 E2PERT=0.05 BNDIDX $END

--Link1--
%chk=mol_031_Z_scan_pt5.chk
%nprocshared=10
%mem=16GB
#p wB97XD/6-311+G(d,p) opt=(ModRedundant) SCF=(Tight,XQC) NoSymm scrf=(smd,solvent=water)

mol_031_Z scan pt5 (R0+0.25A) rigid O-N displacement then constrained opt  [oxime: C3=N2-O1]

1 1
O       -2.60243931     -1.90012361      0.70347436
N       -2.74372900     -0.26763100      0.04565400
C       -1.59163900      0.19768000     -0.26083400
C       -1.66739600      1.62756700     -0.71264700
C       -0.79021600      2.44117400      0.24043400
C        0.66316100      1.99167700      0.15494500
C        0.82384100      0.49631500      0.04599700
C        2.09373100     -0.06274800      0.10161100
F        3.13838800      0.77023400      0.31566900
C        2.35494300     -1.40497300     -0.06517400
C        1.28654200     -2.25767400     -0.31886200
C       -0.00448900     -1.76115400     -0.36663600
C       -0.24374500     -0.39456500     -0.16784200
H       -3.46737431     -2.32330961      0.55703536
H       -2.46556431     -1.84348461      1.66877236
H       -1.28003800      1.68285300     -1.73483100
H       -2.70000800      1.97422000     -0.70630000
H       -1.16673400      2.32205400      1.26096700
H       -0.86710500      3.49927600     -0.01374200
H        1.22728700      2.35867600      1.01489300
H        1.13184600      2.43241700     -0.73250000
H        3.37445400     -1.76699100     -0.01080100
H        1.46654800     -3.31319300     -0.48040300
H       -0.82153400     -2.43140000     -0.58605900

B 2 1 F

--Link1--
%chk=mol_031_Z_scan_pt5.chk
%nprocshared=10
%mem=16GB
#p wB97XD/6-311+G(d,p) Geom=Check Guess=Read Stable=Opt Pop=NBO7Read Density=Current scrf=(smd,solvent=water)

mol_031_Z SP+NBO7/CMO after constrained opt at R0+0.25A  [oxime: C3=N2-O1]

1 1

$NBO CMO PRINT=2 E2PERT=0.05 BNDIDX $END

--Link1--
%chk=mol_031_Z_scan_pt6.chk
%nprocshared=10
%mem=16GB
#p wB97XD/6-311+G(d,p) opt=(ModRedundant) SCF=(Tight,XQC) NoSymm scrf=(smd,solvent=water)

mol_031_Z scan pt6 (R0+0.30A) rigid O-N displacement then constrained opt  [oxime: C3=N2-O1]

1 1
O       -2.59843838     -1.94635134      0.72210203
N       -2.74372900     -0.26763100      0.04565400
C       -1.59163900      0.19768000     -0.26083400
C       -1.66739600      1.62756700     -0.71264700
C       -0.79021600      2.44117400      0.24043400
C        0.66316100      1.99167700      0.15494500
C        0.82384100      0.49631500      0.04599700
C        2.09373100     -0.06274800      0.10161100
F        3.13838800      0.77023400      0.31566900
C        2.35494300     -1.40497300     -0.06517400
C        1.28654200     -2.25767400     -0.31886200
C       -0.00448900     -1.76115400     -0.36663600
C       -0.24374500     -0.39456500     -0.16784200
H       -3.46337338     -2.36953734      0.57566303
H       -2.46156338     -1.88971234      1.68740003
H       -1.28003800      1.68285300     -1.73483100
H       -2.70000800      1.97422000     -0.70630000
H       -1.16673400      2.32205400      1.26096700
H       -0.86710500      3.49927600     -0.01374200
H        1.22728700      2.35867600      1.01489300
H        1.13184600      2.43241700     -0.73250000
H        3.37445400     -1.76699100     -0.01080100
H        1.46654800     -3.31319300     -0.48040300
H       -0.82153400     -2.43140000     -0.58605900

B 2 1 F

--Link1--
%chk=mol_031_Z_scan_pt6.chk
%nprocshared=10
%mem=16GB
#p wB97XD/6-311+G(d,p) Geom=Check Guess=Read Stable=Opt Pop=NBO7Read Density=Current scrf=(smd,solvent=water)

mol_031_Z SP+NBO7/CMO after constrained opt at R0+0.30A  [oxime: C3=N2-O1]

1 1

$NBO CMO PRINT=2 E2PERT=0.05 BNDIDX $END


