%chk=mol_011_Z_scan_pt1.chk
%nprocshared=8
%mem=16GB
#p wB97XD/6-311+G(d,p) opt=(ModRedundant) SCF=(Tight,XQC) NoSymm scrf=(smd,solvent=water)

mol_011_Z scan pt1 (R0+0.05A) rigid O-N displacement then constrained opt  [oxime: C3=N2-O1]

1 1
O        1.71683971     -2.39658674      0.12202808
N        2.50615300     -1.05668200      0.01966500
C        1.66882400     -0.09156100     -0.05842200
C        2.25286100      1.29287500     -0.19995600
C        1.08671400      2.24675800      0.10301800
C       -0.12621300      1.36532100      0.04660600
C       -1.46153800      1.75178900      0.08523300
C       -2.45028800      0.78134100      0.04357700
C       -2.08239100     -0.55635900     -0.03276100
F       -3.06398200     -1.48487100     -0.07596700
C       -0.77577400     -0.98447200     -0.06968800
C        0.20907100      0.00915900     -0.03029100
H        2.13263371     -3.01227674     -0.50887092
H        1.85350271     -2.76215774      1.01674508
H        2.58073700      1.39965100     -1.23757600
H        3.12021000      1.43238500      0.44356100
H        1.02847000      3.06771600     -0.61267600
H        1.18570100      2.68281100      1.10031100
H       -1.73084700      2.79955300      0.14508100
H       -3.50085100      1.04511400      0.06814200
H       -0.55233400     -2.03847800     -0.13594700

B 2 1 F

--Link1--
%chk=mol_011_Z_scan_pt1.chk
%nprocshared=8
%mem=16GB
#p wB97XD/6-311+G(d,p) Geom=Check Guess=Read Stable=Opt Pop=NBO7Read Density=Current scrf=(smd,solvent=water)

mol_011_Z SP+NBO7/CMO after constrained opt at R0+0.05A  [oxime: C3=N2-O1]

1 1

$NBO CMO PRINT=2 E2PERT=0.05 BNDIDX $END

--Link1--
%chk=mol_011_Z_scan_pt2.chk
%nprocshared=8
%mem=16GB
#p wB97XD/6-311+G(d,p) opt=(ModRedundant) SCF=(Tight,XQC) NoSymm scrf=(smd,solvent=water)

mol_011_Z scan pt2 (R0+0.10A) rigid O-N displacement then constrained opt  [oxime: C3=N2-O1]

1 1
O        1.69151642     -2.43957448      0.12531216
N        2.50615300     -1.05668200      0.01966500
C        1.66882400     -0.09156100     -0.05842200
C        2.25286100      1.29287500     -0.19995600
C        1.08671400      2.24675800      0.10301800
C       -0.12621300      1.36532100      0.04660600
C       -1.46153800      1.75178900      0.08523300
C       -2.45028800      0.78134100      0.04357700
C       -2.08239100     -0.55635900     -0.03276100
F       -3.06398200     -1.48487100     -0.07596700
C       -0.77577400     -0.98447200     -0.06968800
C        0.20907100      0.00915900     -0.03029100
H        2.10731042     -3.05526448     -0.50558684
H        1.82817942     -2.80514548      1.02002916
H        2.58073700      1.39965100     -1.23757600
H        3.12021000      1.43238500      0.44356100
H        1.02847000      3.06771600     -0.61267600
H        1.18570100      2.68281100      1.10031100
H       -1.73084700      2.79955300      0.14508100
H       -3.50085100      1.04511400      0.06814200
H       -0.55233400     -2.03847800     -0.13594700

B 2 1 F

--Link1--
%chk=mol_011_Z_scan_pt2.chk
%nprocshared=8
%mem=16GB
#p wB97XD/6-311+G(d,p) Geom=Check Guess=Read Stable=Opt Pop=NBO7Read Density=Current scrf=(smd,solvent=water)

mol_011_Z SP+NBO7/CMO after constrained opt at R0+0.10A  [oxime: C3=N2-O1]

1 1

$NBO CMO PRINT=2 E2PERT=0.05 BNDIDX $END

--Link1--
%chk=mol_011_Z_scan_pt3.chk
%nprocshared=8
%mem=16GB
#p wB97XD/6-311+G(d,p) opt=(ModRedundant) SCF=(Tight,XQC) NoSymm scrf=(smd,solvent=water)

mol_011_Z scan pt3 (R0+0.15A) rigid O-N displacement then constrained opt  [oxime: C3=N2-O1]

1 1
O        1.66619313     -2.48256222      0.12859625
N        2.50615300     -1.05668200      0.01966500
C        1.66882400     -0.09156100     -0.05842200
C        2.25286100      1.29287500     -0.19995600
C        1.08671400      2.24675800      0.10301800
C       -0.12621300      1.36532100      0.04660600
C       -1.46153800      1.75178900      0.08523300
C       -2.45028800      0.78134100      0.04357700
C       -2.08239100     -0.55635900     -0.03276100
F       -3.06398200     -1.48487100     -0.07596700
C       -0.77577400     -0.98447200     -0.06968800
C        0.20907100      0.00915900     -0.03029100
H        2.08198713     -3.09825222     -0.50230275
H        1.80285613     -2.84813322      1.02331325
H        2.58073700      1.39965100     -1.23757600
H        3.12021000      1.43238500      0.44356100
H        1.02847000      3.06771600     -0.61267600
H        1.18570100      2.68281100      1.10031100
H       -1.73084700      2.79955300      0.14508100
H       -3.50085100      1.04511400      0.06814200
H       -0.55233400     -2.03847800     -0.13594700

B 2 1 F

--Link1--
%chk=mol_011_Z_scan_pt3.chk
%nprocshared=8
%mem=16GB
#p wB97XD/6-311+G(d,p) Geom=Check Guess=Read Stable=Opt Pop=NBO7Read Density=Current scrf=(smd,solvent=water)

mol_011_Z SP+NBO7/CMO after constrained opt at R0+0.15A  [oxime: C3=N2-O1]

1 1

$NBO CMO PRINT=2 E2PERT=0.05 BNDIDX $END

--Link1--
%chk=mol_011_Z_scan_pt4.chk
%nprocshared=8
%mem=16GB
#p wB97XD/6-311+G(d,p) opt=(ModRedundant) SCF=(Tight,XQC) NoSymm scrf=(smd,solvent=water)

mol_011_Z scan pt4 (R0+0.20A) rigid O-N displacement then constrained opt  [oxime: C3=N2-O1]

1 1
O        1.64086984     -2.52554996      0.13188033
N        2.50615300     -1.05668200      0.01966500
C        1.66882400     -0.09156100     -0.05842200
C        2.25286100      1.29287500     -0.19995600
C        1.08671400      2.24675800      0.10301800
C       -0.12621300      1.36532100      0.04660600
C       -1.46153800      1.75178900      0.08523300
C       -2.45028800      0.78134100      0.04357700
C       -2.08239100     -0.55635900     -0.03276100
F       -3.06398200     -1.48487100     -0.07596700
C       -0.77577400     -0.98447200     -0.06968800
C        0.20907100      0.00915900     -0.03029100
H        2.05666384     -3.14123996     -0.49901867
H        1.77753284     -2.89112096      1.02659733
H        2.58073700      1.39965100     -1.23757600
H        3.12021000      1.43238500      0.44356100
H        1.02847000      3.06771600     -0.61267600
H        1.18570100      2.68281100      1.10031100
H       -1.73084700      2.79955300      0.14508100
H       -3.50085100      1.04511400      0.06814200
H       -0.55233400     -2.03847800     -0.13594700

B 2 1 F

--Link1--
%chk=mol_011_Z_scan_pt4.chk
%nprocshared=8
%mem=16GB
#p wB97XD/6-311+G(d,p) Geom=Check Guess=Read Stable=Opt Pop=NBO7Read Density=Current scrf=(smd,solvent=water)

mol_011_Z SP+NBO7/CMO after constrained opt at R0+0.20A  [oxime: C3=N2-O1]

1 1

$NBO CMO PRINT=2 E2PERT=0.05 BNDIDX $END

--Link1--
%chk=mol_011_Z_scan_pt5.chk
%nprocshared=8
%mem=16GB
#p wB97XD/6-311+G(d,p) opt=(ModRedundant) SCF=(Tight,XQC) NoSymm scrf=(smd,solvent=water)

mol_011_Z scan pt5 (R0+0.25A) rigid O-N displacement then constrained opt  [oxime: C3=N2-O1]

1 1
O        1.61554656     -2.56853770      0.13516441
N        2.50615300     -1.05668200      0.01966500
C        1.66882400     -0.09156100     -0.05842200
C        2.25286100      1.29287500     -0.19995600
C        1.08671400      2.24675800      0.10301800
C       -0.12621300      1.36532100      0.04660600
C       -1.46153800      1.75178900      0.08523300
C       -2.45028800      0.78134100      0.04357700
C       -2.08239100     -0.55635900     -0.03276100
F       -3.06398200     -1.48487100     -0.07596700
C       -0.77577400     -0.98447200     -0.06968800
C        0.20907100      0.00915900     -0.03029100
H        2.03134056     -3.18422770     -0.49573459
H        1.75220956     -2.93410870      1.02988141
H        2.58073700      1.39965100     -1.23757600
H        3.12021000      1.43238500      0.44356100
H        1.02847000      3.06771600     -0.61267600
H        1.18570100      2.68281100      1.10031100
H       -1.73084700      2.79955300      0.14508100
H       -3.50085100      1.04511400      0.06814200
H       -0.55233400     -2.03847800     -0.13594700

B 2 1 F

--Link1--
%chk=mol_011_Z_scan_pt5.chk
%nprocshared=8
%mem=16GB
#p wB97XD/6-311+G(d,p) Geom=Check Guess=Read Stable=Opt Pop=NBO7Read Density=Current scrf=(smd,solvent=water)

mol_011_Z SP+NBO7/CMO after constrained opt at R0+0.25A  [oxime: C3=N2-O1]

1 1

$NBO CMO PRINT=2 E2PERT=0.05 BNDIDX $END

--Link1--
%chk=mol_011_Z_scan_pt6.chk
%nprocshared=8
%mem=16GB
#p wB97XD/6-311+G(d,p) opt=(ModRedundant) SCF=(Tight,XQC) NoSymm scrf=(smd,solvent=water)

mol_011_Z scan pt6 (R0+0.30A) rigid O-N displacement then constrained opt  [oxime: C3=N2-O1]

1 1
O        1.59022327     -2.61152544      0.13844849
N        2.50615300     -1.05668200      0.01966500
C        1.66882400     -0.09156100     -0.05842200
C        2.25286100      1.29287500     -0.19995600
C        1.08671400      2.24675800      0.10301800
C       -0.12621300      1.36532100      0.04660600
C       -1.46153800      1.75178900      0.08523300
C       -2.45028800      0.78134100      0.04357700
C       -2.08239100     -0.55635900     -0.03276100
F       -3.06398200     -1.48487100     -0.07596700
C       -0.77577400     -0.98447200     -0.06968800
C        0.20907100      0.00915900     -0.03029100
H        2.00601727     -3.22721544     -0.49245051
H        1.72688627     -2.97709644      1.03316549
H        2.58073700      1.39965100     -1.23757600
H        3.12021000      1.43238500      0.44356100
H        1.02847000      3.06771600     -0.61267600
H        1.18570100      2.68281100      1.10031100
H       -1.73084700      2.79955300      0.14508100
H       -3.50085100      1.04511400      0.06814200
H       -0.55233400     -2.03847800     -0.13594700

B 2 1 F

--Link1--
%chk=mol_011_Z_scan_pt6.chk
%nprocshared=8
%mem=16GB
#p wB97XD/6-311+G(d,p) Geom=Check Guess=Read Stable=Opt Pop=NBO7Read Density=Current scrf=(smd,solvent=water)

mol_011_Z SP+NBO7/CMO after constrained opt at R0+0.30A  [oxime: C3=N2-O1]

1 1

$NBO CMO PRINT=2 E2PERT=0.05 BNDIDX $END


