%chk=mol_006_E_finescan_scan_pt1.chk
%nprocshared=8
%mem=16GB
#p wB97XD/6-311+G(d,p) opt=(ModRedundant) SCF=(Tight,XQC) NoSymm scrf=(smd,solvent=water)

mol_006_E_finescan scan pt1 (R0+0.05A) rigid O-N displacement then constrained opt  [oxime: C10=N11-O12]

1 1
C        4.09791300     -0.09575600      0.01178100
C        2.59718100     -0.15982000     -0.00169200
C        1.95503000     -1.41313500     -0.00288100
C        0.57829600     -1.51548400     -0.00427000
C       -0.17150400     -0.33564100     -0.00537300
C        0.44349600      0.91522500     -0.00536600
C        1.83131600      1.00303600     -0.00407800
C       -0.56183400      2.03196600     -0.00768400
C       -1.92963500      1.32341000      0.00426700
C       -1.61546500     -0.14481200     -0.00437300
N       -2.40175600     -1.15732900     -0.00942100
O       -3.86024061     -0.60169215      0.00318380
H        4.45358600      0.93041700     -0.09228200
H        4.51824900     -0.69531300     -0.80000900
H        4.48819100     -0.50133100      0.95003200
H        2.56054200     -2.31332100     -0.00243000
H        0.09548800     -2.48559800     -0.00462500
H        2.31835800      1.97269800     -0.00494900
H       -0.44369900      2.65951700     -0.89349100
H       -0.43426900      2.67441700      0.86584300
H       -2.54204200      1.56710900     -0.86599700
H       -2.52039800      1.56076900      0.89132600
H       -4.34315661     -1.04213215     -0.72031820
H       -4.27262261     -0.88832315      0.83942480

B 11 12 F

--Link1--
%chk=mol_006_E_finescan_scan_pt1.chk
%nprocshared=8
%mem=16GB
#p wB97XD/6-311+G(d,p) Geom=Check Guess=Read Stable=Opt Pop=NBO7Read Density=Current scrf=(smd,solvent=water)

mol_006_E_finescan SP+NBO7/CMO after constrained opt at R0+0.05A  [oxime: C10=N11-O12]

1 1

$NBO CMO PRINT=2 E2PERT=0.05 BNDIDX $END

--Link1--
%chk=mol_006_E_finescan_scan_pt2.chk
%nprocshared=8
%mem=16GB
#p wB97XD/6-311+G(d,p) opt=(ModRedundant) SCF=(Tight,XQC) NoSymm scrf=(smd,solvent=water)

mol_006_E_finescan scan pt2 (R0+0.10A) rigid O-N displacement then constrained opt  [oxime: C10=N11-O12]

1 1
C        4.09791300     -0.09575600      0.01178100
C        2.59718100     -0.15982000     -0.00169200
C        1.95503000     -1.41313500     -0.00288100
C        0.57829600     -1.51548400     -0.00427000
C       -0.17150400     -0.33564100     -0.00537300
C        0.44349600      0.91522500     -0.00536600
C        1.83131600      1.00303600     -0.00407800
C       -0.56183400      2.03196600     -0.00768400
C       -1.92963500      1.32341000      0.00426700
C       -1.61546500     -0.14481200     -0.00437300
N       -2.40175600     -1.15732900     -0.00942100
O       -3.90696322     -0.58389230      0.00358759
H        4.45358600      0.93041700     -0.09228200
H        4.51824900     -0.69531300     -0.80000900
H        4.48819100     -0.50133100      0.95003200
H        2.56054200     -2.31332100     -0.00243000
H        0.09548800     -2.48559800     -0.00462500
H        2.31835800      1.97269800     -0.00494900
H       -0.44369900      2.65951700     -0.89349100
H       -0.43426900      2.67441700      0.86584300
H       -2.54204200      1.56710900     -0.86599700
H       -2.52039800      1.56076900      0.89132600
H       -4.38987922     -1.02433230     -0.71991441
H       -4.31934522     -0.87052330      0.83982859

B 11 12 F

--Link1--
%chk=mol_006_E_finescan_scan_pt2.chk
%nprocshared=8
%mem=16GB
#p wB97XD/6-311+G(d,p) Geom=Check Guess=Read Stable=Opt Pop=NBO7Read Density=Current scrf=(smd,solvent=water)

mol_006_E_finescan SP+NBO7/CMO after constrained opt at R0+0.10A  [oxime: C10=N11-O12]

1 1

$NBO CMO PRINT=2 E2PERT=0.05 BNDIDX $END

--Link1--
%chk=mol_006_E_finescan_scan_pt3.chk
%nprocshared=8
%mem=16GB
#p wB97XD/6-311+G(d,p) opt=(ModRedundant) SCF=(Tight,XQC) NoSymm scrf=(smd,solvent=water)

mol_006_E_finescan scan pt3 (R0+0.15A) rigid O-N displacement then constrained opt  [oxime: C10=N11-O12]

1 1
C        4.09791300     -0.09575600      0.01178100
C        2.59718100     -0.15982000     -0.00169200
C        1.95503000     -1.41313500     -0.00288100
C        0.57829600     -1.51548400     -0.00427000
C       -0.17150400     -0.33564100     -0.00537300
C        0.44349600      0.91522500     -0.00536600
C        1.83131600      1.00303600     -0.00407800
C       -0.56183400      2.03196600     -0.00768400
C       -1.92963500      1.32341000      0.00426700
C       -1.61546500     -0.14481200     -0.00437300
N       -2.40175600     -1.15732900     -0.00942100
O       -3.95368583     -0.56609246      0.00399139
H        4.45358600      0.93041700     -0.09228200
H        4.51824900     -0.69531300     -0.80000900
H        4.48819100     -0.50133100      0.95003200
H        2.56054200     -2.31332100     -0.00243000
H        0.09548800     -2.48559800     -0.00462500
H        2.31835800      1.97269800     -0.00494900
H       -0.44369900      2.65951700     -0.89349100
H       -0.43426900      2.67441700      0.86584300
H       -2.54204200      1.56710900     -0.86599700
H       -2.52039800      1.56076900      0.89132600
H       -4.43660183     -1.00653246     -0.71951061
H       -4.36606783     -0.85272346      0.84023239

B 11 12 F

--Link1--
%chk=mol_006_E_finescan_scan_pt3.chk
%nprocshared=8
%mem=16GB
#p wB97XD/6-311+G(d,p) Geom=Check Guess=Read Stable=Opt Pop=NBO7Read Density=Current scrf=(smd,solvent=water)

mol_006_E_finescan SP+NBO7/CMO after constrained opt at R0+0.15A  [oxime: C10=N11-O12]

1 1

$NBO CMO PRINT=2 E2PERT=0.05 BNDIDX $END

--Link1--
%chk=mol_006_E_finescan_scan_pt4.chk
%nprocshared=8
%mem=16GB
#p wB97XD/6-311+G(d,p) opt=(ModRedundant) SCF=(Tight,XQC) NoSymm scrf=(smd,solvent=water)

mol_006_E_finescan scan pt4 (R0+0.20A) rigid O-N displacement then constrained opt  [oxime: C10=N11-O12]

1 1
C        4.09791300     -0.09575600      0.01178100
C        2.59718100     -0.15982000     -0.00169200
C        1.95503000     -1.41313500     -0.00288100
C        0.57829600     -1.51548400     -0.00427000
C       -0.17150400     -0.33564100     -0.00537300
C        0.44349600      0.91522500     -0.00536600
C        1.83131600      1.00303600     -0.00407800
C       -0.56183400      2.03196600     -0.00768400
C       -1.92963500      1.32341000      0.00426700
C       -1.61546500     -0.14481200     -0.00437300
N       -2.40175600     -1.15732900     -0.00942100
O       -4.00040844     -0.54829261      0.00439518
H        4.45358600      0.93041700     -0.09228200
H        4.51824900     -0.69531300     -0.80000900
H        4.48819100     -0.50133100      0.95003200
H        2.56054200     -2.31332100     -0.00243000
H        0.09548800     -2.48559800     -0.00462500
H        2.31835800      1.97269800     -0.00494900
H       -0.44369900      2.65951700     -0.89349100
H       -0.43426900      2.67441700      0.86584300
H       -2.54204200      1.56710900     -0.86599700
H       -2.52039800      1.56076900      0.89132600
H       -4.48332444     -0.98873261     -0.71910682
H       -4.41279044     -0.83492361      0.84063618

B 11 12 F

--Link1--
%chk=mol_006_E_finescan_scan_pt4.chk
%nprocshared=8
%mem=16GB
#p wB97XD/6-311+G(d,p) Geom=Check Guess=Read Stable=Opt Pop=NBO7Read Density=Current scrf=(smd,solvent=water)

mol_006_E_finescan SP+NBO7/CMO after constrained opt at R0+0.20A  [oxime: C10=N11-O12]

1 1

$NBO CMO PRINT=2 E2PERT=0.05 BNDIDX $END

--Link1--
%chk=mol_006_E_finescan_scan_pt5.chk
%nprocshared=8
%mem=16GB
#p wB97XD/6-311+G(d,p) opt=(ModRedundant) SCF=(Tight,XQC) NoSymm scrf=(smd,solvent=water)

mol_006_E_finescan scan pt5 (R0+0.25A) rigid O-N displacement then constrained opt  [oxime: C10=N11-O12]

1 1
C        4.09791300     -0.09575600      0.01178100
C        2.59718100     -0.15982000     -0.00169200
C        1.95503000     -1.41313500     -0.00288100
C        0.57829600     -1.51548400     -0.00427000
C       -0.17150400     -0.33564100     -0.00537300
C        0.44349600      0.91522500     -0.00536600
C        1.83131600      1.00303600     -0.00407800
C       -0.56183400      2.03196600     -0.00768400
C       -1.92963500      1.32341000      0.00426700
C       -1.61546500     -0.14481200     -0.00437300
N       -2.40175600     -1.15732900     -0.00942100
O       -4.04713105     -0.53049276      0.00479898
H        4.45358600      0.93041700     -0.09228200
H        4.51824900     -0.69531300     -0.80000900
H        4.48819100     -0.50133100      0.95003200
H        2.56054200     -2.31332100     -0.00243000
H        0.09548800     -2.48559800     -0.00462500
H        2.31835800      1.97269800     -0.00494900
H       -0.44369900      2.65951700     -0.89349100
H       -0.43426900      2.67441700      0.86584300
H       -2.54204200      1.56710900     -0.86599700
H       -2.52039800      1.56076900      0.89132600
H       -4.53004705     -0.97093276     -0.71870302
H       -4.45951305     -0.81712376      0.84103998

B 11 12 F

--Link1--
%chk=mol_006_E_finescan_scan_pt5.chk
%nprocshared=8
%mem=16GB
#p wB97XD/6-311+G(d,p) Geom=Check Guess=Read Stable=Opt Pop=NBO7Read Density=Current scrf=(smd,solvent=water)

mol_006_E_finescan SP+NBO7/CMO after constrained opt at R0+0.25A  [oxime: C10=N11-O12]

1 1

$NBO CMO PRINT=2 E2PERT=0.05 BNDIDX $END

--Link1--
%chk=mol_006_E_finescan_scan_pt6.chk
%nprocshared=8
%mem=16GB
#p wB97XD/6-311+G(d,p) opt=(ModRedundant) SCF=(Tight,XQC) NoSymm scrf=(smd,solvent=water)

mol_006_E_finescan scan pt6 (R0+0.30A) rigid O-N displacement then constrained opt  [oxime: C10=N11-O12]

1 1
C        4.09791300     -0.09575600      0.01178100
C        2.59718100     -0.15982000     -0.00169200
C        1.95503000     -1.41313500     -0.00288100
C        0.57829600     -1.51548400     -0.00427000
C       -0.17150400     -0.33564100     -0.00537300
C        0.44349600      0.91522500     -0.00536600
C        1.83131600      1.00303600     -0.00407800
C       -0.56183400      2.03196600     -0.00768400
C       -1.92963500      1.32341000      0.00426700
C       -1.61546500     -0.14481200     -0.00437300
N       -2.40175600     -1.15732900     -0.00942100
O       -4.09385367     -0.51269291      0.00520277
H        4.45358600      0.93041700     -0.09228200
H        4.51824900     -0.69531300     -0.80000900
H        4.48819100     -0.50133100      0.95003200
H        2.56054200     -2.31332100     -0.00243000
H        0.09548800     -2.48559800     -0.00462500
H        2.31835800      1.97269800     -0.00494900
H       -0.44369900      2.65951700     -0.89349100
H       -0.43426900      2.67441700      0.86584300
H       -2.54204200      1.56710900     -0.86599700
H       -2.52039800      1.56076900      0.89132600
H       -4.57676967     -0.95313291     -0.71829923
H       -4.50623567     -0.79932391      0.84144377

B 11 12 F

--Link1--
%chk=mol_006_E_finescan_scan_pt6.chk
%nprocshared=8
%mem=16GB
#p wB97XD/6-311+G(d,p) Geom=Check Guess=Read Stable=Opt Pop=NBO7Read Density=Current scrf=(smd,solvent=water)

mol_006_E_finescan SP+NBO7/CMO after constrained opt at R0+0.30A  [oxime: C10=N11-O12]

1 1

$NBO CMO PRINT=2 E2PERT=0.05 BNDIDX $END

--Link1--
%chk=mol_006_E_finescan_scan_pt7.chk
%nprocshared=8
%mem=16GB
#p wB97XD/6-311+G(d,p) opt=(ModRedundant) SCF=(Tight,XQC) NoSymm scrf=(smd,solvent=water)

mol_006_E_finescan scan pt7 (R0+0.35A) rigid O-N displacement then constrained opt  [oxime: C10=N11-O12]

1 1
C        4.09791300     -0.09575600      0.01178100
C        2.59718100     -0.15982000     -0.00169200
C        1.95503000     -1.41313500     -0.00288100
C        0.57829600     -1.51548400     -0.00427000
C       -0.17150400     -0.33564100     -0.00537300
C        0.44349600      0.91522500     -0.00536600
C        1.83131600      1.00303600     -0.00407800
C       -0.56183400      2.03196600     -0.00768400
C       -1.92963500      1.32341000      0.00426700
C       -1.61546500     -0.14481200     -0.00437300
N       -2.40175600     -1.15732900     -0.00942100
O       -4.14057628     -0.49489306      0.00560657
H        4.45358600      0.93041700     -0.09228200
H        4.51824900     -0.69531300     -0.80000900
H        4.48819100     -0.50133100      0.95003200
H        2.56054200     -2.31332100     -0.00243000
H        0.09548800     -2.48559800     -0.00462500
H        2.31835800      1.97269800     -0.00494900
H       -0.44369900      2.65951700     -0.89349100
H       -0.43426900      2.67441700      0.86584300
H       -2.54204200      1.56710900     -0.86599700
H       -2.52039800      1.56076900      0.89132600
H       -4.62349228     -0.93533306     -0.71789543
H       -4.55295828     -0.78152406      0.84184757

B 11 12 F

--Link1--
%chk=mol_006_E_finescan_scan_pt7.chk
%nprocshared=8
%mem=16GB
#p wB97XD/6-311+G(d,p) Geom=Check Guess=Read Stable=Opt Pop=NBO7Read Density=Current scrf=(smd,solvent=water)

mol_006_E_finescan SP+NBO7/CMO after constrained opt at R0+0.35A  [oxime: C10=N11-O12]

1 1

$NBO CMO PRINT=2 E2PERT=0.05 BNDIDX $END

--Link1--
%chk=mol_006_E_finescan_scan_pt8.chk
%nprocshared=8
%mem=16GB
#p wB97XD/6-311+G(d,p) opt=(ModRedundant) SCF=(Tight,XQC) NoSymm scrf=(smd,solvent=water)

mol_006_E_finescan scan pt8 (R0+0.40A) rigid O-N displacement then constrained opt  [oxime: C10=N11-O12]

1 1
C        4.09791300     -0.09575600      0.01178100
C        2.59718100     -0.15982000     -0.00169200
C        1.95503000     -1.41313500     -0.00288100
C        0.57829600     -1.51548400     -0.00427000
C       -0.17150400     -0.33564100     -0.00537300
C        0.44349600      0.91522500     -0.00536600
C        1.83131600      1.00303600     -0.00407800
C       -0.56183400      2.03196600     -0.00768400
C       -1.92963500      1.32341000      0.00426700
C       -1.61546500     -0.14481200     -0.00437300
N       -2.40175600     -1.15732900     -0.00942100
O       -4.18729889     -0.47709322      0.00601036
H        4.45358600      0.93041700     -0.09228200
H        4.51824900     -0.69531300     -0.80000900
H        4.48819100     -0.50133100      0.95003200
H        2.56054200     -2.31332100     -0.00243000
H        0.09548800     -2.48559800     -0.00462500
H        2.31835800      1.97269800     -0.00494900
H       -0.44369900      2.65951700     -0.89349100
H       -0.43426900      2.67441700      0.86584300
H       -2.54204200      1.56710900     -0.86599700
H       -2.52039800      1.56076900      0.89132600
H       -4.67021489     -0.91753322     -0.71749164
H       -4.59968089     -0.76372422      0.84225136

B 11 12 F

--Link1--
%chk=mol_006_E_finescan_scan_pt8.chk
%nprocshared=8
%mem=16GB
#p wB97XD/6-311+G(d,p) Geom=Check Guess=Read Stable=Opt Pop=NBO7Read Density=Current scrf=(smd,solvent=water)

mol_006_E_finescan SP+NBO7/CMO after constrained opt at R0+0.40A  [oxime: C10=N11-O12]

1 1

$NBO CMO PRINT=2 E2PERT=0.05 BNDIDX $END


