%chk=mol_033_E.chk
%nprocshared=8
%mem=16GB
#p wB97XD/6-311+G(d,p) sp pop=nboread

mol_033_E  [oxime: C3=N2-O1]

1 1
O       -2.75040000      2.38740000      0.27210000
N       -1.10060000      2.08680000     -0.01510000
C       -0.93350000      0.82160000      0.02920000
C       -1.98440000     -0.23110000      0.23720000
C       -1.48470000     -1.62890000     -0.08190000
C       -0.15260000     -1.88540000      0.59460000
C        0.86760000     -0.88170000      0.15950000
C        2.19870000     -1.24290000      0.02760000
C        3.14060000     -0.30830000     -0.37910000
Cl       4.79580000     -0.78350000     -0.53870000
C        2.77300000      1.00840000     -0.66160000
C        1.45480000      1.37640000     -0.52880000
C        0.48530000      0.44440000     -0.12470000
H       -2.67650000      3.07380000      0.96310000
H       -2.99360000      2.84680000     -0.55500000
H       -2.86610000      0.02080000     -0.34800000
H       -2.27870000     -0.15270000      1.28520000
H       -2.22650000     -2.34930000      0.25050000
H       -1.37790000     -1.74650000     -1.16040000
H       -0.27780000     -1.82550000      1.68000000
H        0.18890000     -2.89540000      0.38390000
H        2.50720000     -2.25670000      0.23620000
H        3.51840000      1.72240000     -0.97770000
H        1.17300000      2.39880000     -0.74820000
$NBO E2PERT BNDIDX NBOSUM $END


