24
mol_026_E_opt
O        3.350400      1.308700      0.397400
N        1.686100      1.585000      0.237400
C        1.127100      0.454800      0.036400
C        1.791000     -0.884000     -0.093500
C        0.877800     -1.931300     -0.703700
C       -0.462200     -1.948100      0.004200
C       -1.118300     -0.604700     -0.045500
C       -2.505500     -0.485200     -0.099700
C       -3.126200      0.748700     -0.146900
C       -2.340900      1.896900     -0.138200
F       -2.942800      3.091800     -0.185900
C       -0.966000      1.832900     -0.080700
C       -0.348000      0.574300     -0.037100
H        3.520200      1.808800      1.219500
H        3.688200      1.857200     -0.337400
H        2.086400     -1.164800      0.919300
H        2.710900     -0.773900     -0.662200
H        0.731800     -1.721100     -1.763500
H        1.361100     -2.901200     -0.631200
H       -1.106500     -2.704600     -0.436600
H       -0.321100     -2.241900      1.049200
H       -3.112300     -1.379200     -0.109900
H       -4.201900      0.836900     -0.190400
H       -0.379500      2.743800     -0.075000
