%chk=mol_007_Z.chk
%nprocshared=8
%mem=16GB
#p wB97XD/6-311+G(d,p) sp pop=nboread

mol_007_Z  [oxime: C3=N2-O1]

1 1
O       -2.62940000      2.42180000      0.30160000
N       -3.06650000      0.78590000      0.16320000
C       -2.01370000      0.09510000      0.00350000
C       -2.33900000     -1.39460000     -0.12570000
C       -0.97270000     -2.09300000      0.03270000
C        0.02570000     -0.99030000     -0.05490000
C        1.40490000     -1.09660000     -0.10810000
C        2.15790000      0.06510000     -0.17790000
C        3.66560000     -0.01910000     -0.28620000
F        4.05250000      0.13170000     -1.57320000
F        4.13360000     -1.20250000      0.14610000
F        4.26340000      0.95070000      0.43400000
C        1.56220000      1.32700000     -0.19590000
C        0.19080000      1.44650000     -0.14210000
C       -0.57570000      0.28100000     -0.06480000
H       -2.79370000      2.60420000      1.24750000
H       -3.34950000      2.83770000     -0.21060000
H       -2.76200000     -1.56410000     -1.11270000
H       -3.08040000     -1.71510000      0.59840000
H       -0.80270000     -2.85960000     -0.71970000
H       -0.90210000     -2.59000000      1.00000000
H        1.89080000     -2.05990000     -0.09390000
H        2.18490000      2.20570000     -0.25560000
H       -0.24490000      2.43220000     -0.17710000
$NBO E2PERT BNDIDX NBOSUM $END


