25
mol_016_Z_opt
C        3.707700      1.020900      0.491500
O        2.308000      1.013200      0.790100
C        1.476800      0.322600     -0.004300
C        1.862400     -0.414500     -1.125200
C        0.920700     -1.097000     -1.887600
C       -0.420200     -1.072200     -1.561100
C       -0.801700     -0.339200     -0.435400
C        0.120700      0.363700      0.340300
C       -0.484900      1.088600      1.487800
C       -2.004700      0.858700      1.336200
C       -2.119600     -0.133200      0.161500
N       -3.305300     -0.529700      0.025200
O       -3.358300     -1.671600     -1.356200
H        3.888000      1.459800     -0.489000
H        4.167100      1.634600      1.257400
H        4.115200      0.011700      0.535200
H        2.899000     -0.461400     -1.415300
H        1.250300     -1.652900     -2.752000
H       -1.128000     -1.597500     -2.177900
H       -0.226000      2.144900      1.477000
H       -0.116300      0.696500      2.434000
H       -2.534400      1.769600      1.073000
H       -2.474100      0.457900      2.228700
H       -4.210000     -1.376600     -1.726800
H       -3.532200     -2.496800     -0.868800
