25
mol_016_E_opt
C        3.823100     -1.002200     -0.072800
O        2.403200     -1.172400     -0.110500
C        1.617100     -0.083500     -0.075600
C        2.063300      1.241500     -0.016400
C        1.156200      2.299400      0.016400
C       -0.211700      2.085700     -0.007700
C       -0.636400      0.758700     -0.067000
C        0.240800     -0.322200     -0.101900
C       -0.456500     -1.642900     -0.161800
C       -1.950000     -1.290400     -0.170700
C       -2.000500      0.212200     -0.103200
N       -2.962400      1.034900     -0.074400
O       -4.398100      0.045100     -0.129100
H        4.240400     -2.002400     -0.108000
H        4.125600     -0.508800      0.850700
H        4.164400     -0.430200     -0.935300
H        3.118700      1.468900      0.004700
H        1.545000      3.306800      0.061900
H       -0.895200      2.921300      0.019200
H       -0.163900     -2.198000     -1.049600
H       -0.190500     -2.260700      0.692400
H       -2.465000     -1.623000     -1.068500
H       -2.495300     -1.706700      0.672400
H       -4.831500      0.470700     -0.893100
H       -4.840700      0.397900      0.666100
