26
mol_027_Z_opt
O        4.151100      0.091000      0.556200
N        3.654500     -0.956000      0.150300
O        4.257600     -1.987200     -0.104000
C        2.191300     -0.966200     -0.051700
C        1.568100     -2.109700     -0.530100
C        0.195200     -2.111300     -0.686600
C       -0.566200     -0.985700     -0.380800
C        0.096900      0.183600      0.054400
C        1.480400      0.172300      0.255500
C       -0.725900      1.366200      0.284500
N       -0.514000      2.617000      0.268100
O        1.105600      2.934700     -0.161100
C       -2.231500      1.230300      0.595300
C       -2.666100     -0.221100      0.679300
C       -2.059300     -1.010900     -0.467400
H        2.162400     -2.980400     -0.760800
H       -0.302300     -3.003600     -1.040600
H        2.023600      0.994500      0.688500
H        1.164000      3.879900      0.075100
H        1.116900      2.870100     -1.135900
H       -2.436300      1.771800      1.520100
H       -2.767100      1.757600     -0.195500
H       -3.752800     -0.274700      0.644100
H       -2.353800     -0.650800      1.631400
H       -2.375500     -0.573400     -1.419000
H       -2.416500     -2.038000     -0.469100
