23
mol_018_Z_opt
O       -3.992600      1.426700      0.213200
N       -3.205600      0.496900      0.296500
O       -3.500900     -0.673600      0.514300
C       -1.765500      0.805700      0.126800
C       -1.397800      2.139400      0.066200
C       -0.067200      2.503400     -0.083700
C        0.911800      1.531500     -0.169700
C        0.534500      0.188600     -0.093100
C       -0.812400     -0.200700      0.034200
C       -0.982300     -1.684100      0.054200
C        0.434400     -2.242800     -0.202200
C        1.346900     -1.022500     -0.136000
N        2.560100     -1.393600     -0.106400
O        3.572700     -0.021500     -0.043100
H       -2.173100      2.885800      0.136400
H        0.198700      3.547700     -0.135300
H        1.939000      1.832400     -0.308900
H       -1.376000     -2.009200      1.014800
H       -1.699900     -2.016100     -0.690900
H        0.521800     -2.682900     -1.193500
H        0.739000     -3.001500      0.512900
H        3.946000     -0.095300      0.857500
H        4.268200     -0.313700     -0.664400
