21
mol_004_E_opt
O        3.519900     -0.797500      0.148900
N        1.966000     -1.338900     -0.030600
C        1.206600     -0.312100      0.044300
C        1.519900      1.145900      0.249300
C        0.158200      1.857300      0.238900
C       -0.844700      0.762000      0.034800
C       -2.216200      0.870500     -0.045400
C       -2.956500     -0.292700     -0.241000
Cl      -4.680700     -0.185800     -0.345100
C       -2.349200     -1.548600     -0.356300
C       -0.978000     -1.659000     -0.276100
C       -0.229100     -0.495700     -0.079300
H        3.941000     -1.150300     -0.659200
H        3.829700     -1.347200      0.895000
H        2.185900      1.482000     -0.542800
H        2.058600      1.264400      1.187300
H       -0.023300      2.385800      1.171400
H        0.099500      2.594300     -0.558200
H       -2.719300      1.822200      0.039000
H       -2.965100     -2.421900     -0.507600
H       -0.523200     -2.634700     -0.367000
