%chk=mol_014_E_scan_pt1.chk
%nprocshared=8
%mem=16GB
#p wB97XD/6-311+G(d,p) opt=(ModRedundant) SCF=(Tight,XQC) NoSymm scrf=(smd,solvent=water)

mol_014_E scan pt1 (R0+0.05A) rigid O-N displacement then constrained opt  [oxime: C3=N2-O1]

1 1
O        3.45627359     -0.47662946     -0.03028787
N        1.98752200     -0.98601900     -0.02926600
C        1.22747300      0.04516400     -0.01415100
C        1.58702700      1.50331600      0.00486700
C        0.24662000      2.25827700     -0.01796300
C       -0.80152000      1.18205500     -0.00779800
C       -2.18262400      1.32392600      0.00129600
C       -2.97324800      0.18129700      0.01124700
C       -2.41130100     -1.09731400      0.01162800
C       -1.03995900     -1.21738100      0.00117800
F       -0.48628700     -2.44007900      0.00281400
C       -0.22269100     -0.09093400     -0.00857600
H        3.99471759     -1.20967546     -0.38152187
H        3.74868659     -0.31388146      0.88871713
H        2.17351400      1.71603300      0.90185100
H        2.21938900      1.72810300     -0.85622500
H        0.13771600      2.91419100      0.84752200
H        0.15132500      2.87778700     -0.91190700
H       -2.63567500      2.30796300      0.00205600
H       -4.05295000      0.27512900      0.02003900
H       -3.02925200     -1.98637200      0.02060700

B 2 1 F

--Link1--
%chk=mol_014_E_scan_pt1.chk
%nprocshared=8
%mem=16GB
#p wB97XD/6-311+G(d,p) Geom=Check Guess=Read Stable=Opt Pop=NBO7Read Density=Current scrf=(smd,solvent=water)

mol_014_E SP+NBO7/CMO after constrained opt at R0+0.05A  [oxime: C3=N2-O1]

1 1

$NBO CMO PRINT=2 E2PERT=0.05 BNDIDX $END

--Link1--
%chk=mol_014_E_scan_pt2.chk
%nprocshared=8
%mem=16GB
#p wB97XD/6-311+G(d,p) opt=(ModRedundant) SCF=(Tight,XQC) NoSymm scrf=(smd,solvent=water)

mol_014_E scan pt2 (R0+0.10A) rigid O-N displacement then constrained opt  [oxime: C3=N2-O1]

1 1
O        3.50351317     -0.46024592     -0.03032073
N        1.98752200     -0.98601900     -0.02926600
C        1.22747300      0.04516400     -0.01415100
C        1.58702700      1.50331600      0.00486700
C        0.24662000      2.25827700     -0.01796300
C       -0.80152000      1.18205500     -0.00779800
C       -2.18262400      1.32392600      0.00129600
C       -2.97324800      0.18129700      0.01124700
C       -2.41130100     -1.09731400      0.01162800
C       -1.03995900     -1.21738100      0.00117800
F       -0.48628700     -2.44007900      0.00281400
C       -0.22269100     -0.09093400     -0.00857600
H        4.04195717     -1.19329192     -0.38155473
H        3.79592617     -0.29749792      0.88868427
H        2.17351400      1.71603300      0.90185100
H        2.21938900      1.72810300     -0.85622500
H        0.13771600      2.91419100      0.84752200
H        0.15132500      2.87778700     -0.91190700
H       -2.63567500      2.30796300      0.00205600
H       -4.05295000      0.27512900      0.02003900
H       -3.02925200     -1.98637200      0.02060700

B 2 1 F

--Link1--
%chk=mol_014_E_scan_pt2.chk
%nprocshared=8
%mem=16GB
#p wB97XD/6-311+G(d,p) Geom=Check Guess=Read Stable=Opt Pop=NBO7Read Density=Current scrf=(smd,solvent=water)

mol_014_E SP+NBO7/CMO after constrained opt at R0+0.10A  [oxime: C3=N2-O1]

1 1

$NBO CMO PRINT=2 E2PERT=0.05 BNDIDX $END

--Link1--
%chk=mol_014_E_scan_pt3.chk
%nprocshared=8
%mem=16GB
#p wB97XD/6-311+G(d,p) opt=(ModRedundant) SCF=(Tight,XQC) NoSymm scrf=(smd,solvent=water)

mol_014_E scan pt3 (R0+0.15A) rigid O-N displacement then constrained opt  [oxime: C3=N2-O1]

1 1
O        3.55075276     -0.44386238     -0.03035360
N        1.98752200     -0.98601900     -0.02926600
C        1.22747300      0.04516400     -0.01415100
C        1.58702700      1.50331600      0.00486700
C        0.24662000      2.25827700     -0.01796300
C       -0.80152000      1.18205500     -0.00779800
C       -2.18262400      1.32392600      0.00129600
C       -2.97324800      0.18129700      0.01124700
C       -2.41130100     -1.09731400      0.01162800
C       -1.03995900     -1.21738100      0.00117800
F       -0.48628700     -2.44007900      0.00281400
C       -0.22269100     -0.09093400     -0.00857600
H        4.08919676     -1.17690838     -0.38158760
H        3.84316576     -0.28111438      0.88865140
H        2.17351400      1.71603300      0.90185100
H        2.21938900      1.72810300     -0.85622500
H        0.13771600      2.91419100      0.84752200
H        0.15132500      2.87778700     -0.91190700
H       -2.63567500      2.30796300      0.00205600
H       -4.05295000      0.27512900      0.02003900
H       -3.02925200     -1.98637200      0.02060700

B 2 1 F

--Link1--
%chk=mol_014_E_scan_pt3.chk
%nprocshared=8
%mem=16GB
#p wB97XD/6-311+G(d,p) Geom=Check Guess=Read Stable=Opt Pop=NBO7Read Density=Current scrf=(smd,solvent=water)

mol_014_E SP+NBO7/CMO after constrained opt at R0+0.15A  [oxime: C3=N2-O1]

1 1

$NBO CMO PRINT=2 E2PERT=0.05 BNDIDX $END

--Link1--
%chk=mol_014_E_scan_pt4.chk
%nprocshared=8
%mem=16GB
#p wB97XD/6-311+G(d,p) opt=(ModRedundant) SCF=(Tight,XQC) NoSymm scrf=(smd,solvent=water)

mol_014_E scan pt4 (R0+0.20A) rigid O-N displacement then constrained opt  [oxime: C3=N2-O1]

1 1
O        3.59799235     -0.42747884     -0.03038647
N        1.98752200     -0.98601900     -0.02926600
C        1.22747300      0.04516400     -0.01415100
C        1.58702700      1.50331600      0.00486700
C        0.24662000      2.25827700     -0.01796300
C       -0.80152000      1.18205500     -0.00779800
C       -2.18262400      1.32392600      0.00129600
C       -2.97324800      0.18129700      0.01124700
C       -2.41130100     -1.09731400      0.01162800
C       -1.03995900     -1.21738100      0.00117800
F       -0.48628700     -2.44007900      0.00281400
C       -0.22269100     -0.09093400     -0.00857600
H        4.13643635     -1.16052484     -0.38162047
H        3.89040535     -0.26473084      0.88861853
H        2.17351400      1.71603300      0.90185100
H        2.21938900      1.72810300     -0.85622500
H        0.13771600      2.91419100      0.84752200
H        0.15132500      2.87778700     -0.91190700
H       -2.63567500      2.30796300      0.00205600
H       -4.05295000      0.27512900      0.02003900
H       -3.02925200     -1.98637200      0.02060700

B 2 1 F

--Link1--
%chk=mol_014_E_scan_pt4.chk
%nprocshared=8
%mem=16GB
#p wB97XD/6-311+G(d,p) Geom=Check Guess=Read Stable=Opt Pop=NBO7Read Density=Current scrf=(smd,solvent=water)

mol_014_E SP+NBO7/CMO after constrained opt at R0+0.20A  [oxime: C3=N2-O1]

1 1

$NBO CMO PRINT=2 E2PERT=0.05 BNDIDX $END

--Link1--
%chk=mol_014_E_scan_pt5.chk
%nprocshared=8
%mem=16GB
#p wB97XD/6-311+G(d,p) opt=(ModRedundant) SCF=(Tight,XQC) NoSymm scrf=(smd,solvent=water)

mol_014_E scan pt5 (R0+0.25A) rigid O-N displacement then constrained opt  [oxime: C3=N2-O1]

1 1
O        3.64523193     -0.41109530     -0.03041933
N        1.98752200     -0.98601900     -0.02926600
C        1.22747300      0.04516400     -0.01415100
C        1.58702700      1.50331600      0.00486700
C        0.24662000      2.25827700     -0.01796300
C       -0.80152000      1.18205500     -0.00779800
C       -2.18262400      1.32392600      0.00129600
C       -2.97324800      0.18129700      0.01124700
C       -2.41130100     -1.09731400      0.01162800
C       -1.03995900     -1.21738100      0.00117800
F       -0.48628700     -2.44007900      0.00281400
C       -0.22269100     -0.09093400     -0.00857600
H        4.18367593     -1.14414130     -0.38165333
H        3.93764493     -0.24834730      0.88858567
H        2.17351400      1.71603300      0.90185100
H        2.21938900      1.72810300     -0.85622500
H        0.13771600      2.91419100      0.84752200
H        0.15132500      2.87778700     -0.91190700
H       -2.63567500      2.30796300      0.00205600
H       -4.05295000      0.27512900      0.02003900
H       -3.02925200     -1.98637200      0.02060700

B 2 1 F

--Link1--
%chk=mol_014_E_scan_pt5.chk
%nprocshared=8
%mem=16GB
#p wB97XD/6-311+G(d,p) Geom=Check Guess=Read Stable=Opt Pop=NBO7Read Density=Current scrf=(smd,solvent=water)

mol_014_E SP+NBO7/CMO after constrained opt at R0+0.25A  [oxime: C3=N2-O1]

1 1

$NBO CMO PRINT=2 E2PERT=0.05 BNDIDX $END

--Link1--
%chk=mol_014_E_scan_pt6.chk
%nprocshared=8
%mem=16GB
#p wB97XD/6-311+G(d,p) opt=(ModRedundant) SCF=(Tight,XQC) NoSymm scrf=(smd,solvent=water)

mol_014_E scan pt6 (R0+0.30A) rigid O-N displacement then constrained opt  [oxime: C3=N2-O1]

1 1
O        3.69247152     -0.39471176     -0.03045220
N        1.98752200     -0.98601900     -0.02926600
C        1.22747300      0.04516400     -0.01415100
C        1.58702700      1.50331600      0.00486700
C        0.24662000      2.25827700     -0.01796300
C       -0.80152000      1.18205500     -0.00779800
C       -2.18262400      1.32392600      0.00129600
C       -2.97324800      0.18129700      0.01124700
C       -2.41130100     -1.09731400      0.01162800
C       -1.03995900     -1.21738100      0.00117800
F       -0.48628700     -2.44007900      0.00281400
C       -0.22269100     -0.09093400     -0.00857600
H        4.23091552     -1.12775776     -0.38168620
H        3.98488452     -0.23196376      0.88855280
H        2.17351400      1.71603300      0.90185100
H        2.21938900      1.72810300     -0.85622500
H        0.13771600      2.91419100      0.84752200
H        0.15132500      2.87778700     -0.91190700
H       -2.63567500      2.30796300      0.00205600
H       -4.05295000      0.27512900      0.02003900
H       -3.02925200     -1.98637200      0.02060700

B 2 1 F

--Link1--
%chk=mol_014_E_scan_pt6.chk
%nprocshared=8
%mem=16GB
#p wB97XD/6-311+G(d,p) Geom=Check Guess=Read Stable=Opt Pop=NBO7Read Density=Current scrf=(smd,solvent=water)

mol_014_E SP+NBO7/CMO after constrained opt at R0+0.30A  [oxime: C3=N2-O1]

1 1

$NBO CMO PRINT=2 E2PERT=0.05 BNDIDX $END


