%chk=mol_014_E_opt.chk
%nprocshared=8
%mem=16GB
#p wB97XD/6-311+G(d,p) opt scrf=(smd,solvent=water)

mol_014_E opt  [oxime: C3=N2-O1]

1 1
O       -3.27330000      1.12440000      0.85700000
N       -1.67720000      1.47960000      0.71440000
C       -1.09850000      0.41490000      0.29540000
C       -1.64470000     -0.94620000     -0.03850000
C       -0.43200000     -1.77060000     -0.49030000
C        0.73500000     -0.83780000     -0.37550000
C        2.06460000     -1.08230000     -0.65130000
C        2.98130000     -0.05230000     -0.47120000
C        2.60180000      1.21080000     -0.02420000
C        1.27220000      1.45240000      0.25120000
F        0.88720000      2.65780000      0.68060000
C        0.33320000      0.42990000      0.07820000
H       -3.67960000      1.82240000      0.30700000
H       -3.44410000      1.35720000      1.79050000
H       -2.13760000     -1.35500000      0.84170000
H       -2.40730000     -0.84550000     -0.80850000
H       -0.28970000     -2.64940000      0.13290000
H       -0.54610000     -2.12250000     -1.51240000
H        2.39310000     -2.05040000     -0.99970000
H        4.02590000     -0.23000000     -0.68300000
H        3.33570000      1.99250000      0.10610000


