%chk=mol_028_E_opt.chk
%nprocshared=8
%mem=16GB
#p wB97XD/6-311+G(d,p) opt scrf=(smd,solvent=water)

mol_028_E opt  [oxime: C8=N9-O10]

1 1
C        2.32620000      1.53900000      0.45290000
C        0.84680000      1.56730000      0.19320000
C        0.21080000      2.80290000      0.20060000
C       -1.15830000      2.92420000      0.01300000
C       -1.93790000      1.79590000     -0.17130000
C       -1.35750000      0.53500000     -0.17990000
C        0.04210000      0.41730000     -0.02750000
C        0.60000000     -0.95940000     -0.15160000
N        1.81210000     -0.96710000     -0.54110000
O        2.28010000     -2.62750000     -0.72400000
C       -0.27300000     -2.17040000      0.09460000
C       -1.67660000     -1.80700000      0.54440000
C       -2.21150000     -0.68620000     -0.32340000
H        2.59430000      0.80850000      1.21420000
H        2.66170000      2.51470000      0.79270000
H        2.89550000      1.28520000     -0.43920000
H        0.79770000      3.69760000      0.35930000
H       -1.61370000      3.90510000      0.01790000
H       -3.00790000      1.89190000     -0.30200000
H        2.96320000     -2.70380000     -0.03080000
H        2.74510000     -2.56010000     -1.57960000
H       -0.31400000     -2.71170000     -0.85130000
H        0.22080000     -2.83030000      0.80740000
H       -1.67120000     -1.49300000      1.58820000
H       -2.30820000     -2.68850000      0.47190000
H       -3.24340000     -0.46830000     -0.06060000
H       -2.22350000     -1.01150000     -1.36780000


