%chk=mol_028_E_scan_pt1.chk
%nprocshared=8
%mem=16GB
#p wB97XD/6-311+G(d,p) opt=(ModRedundant) SCF=(Tight,XQC) NoSymm scrf=(smd,solvent=water)

mol_028_E scan pt1 (R0+0.05A) rigid O-N displacement then constrained opt  [oxime: C8=N9-O10]

1 1
C        0.48756600     -2.66799700      0.49843100
C        1.07668000     -1.32195500      0.16852900
C        2.46399100     -1.21718600      0.08096300
C        3.08659100     -0.00597300     -0.18900600
C        2.33097600      1.14760900     -0.33895900
C        0.94565400      1.09339100     -0.24361700
C        0.31596300     -0.14800100     -0.02320500
C       -1.16420800     -0.12263600     -0.02370900
N       -1.71734300     -1.17472800     -0.50452300
O       -3.27108254     -0.98831202     -0.42724177
C       -1.90447400      1.10280000      0.43932700
C       -0.98090900      2.27584600      0.73993800
C        0.11628900      2.34766100     -0.31731300
H       -0.34433400     -2.58797000      1.20031000
H        1.25546600     -3.30382700      0.94216400
H        0.11207500     -3.16838300     -0.39705300
H        3.06529900     -2.10632900      0.23666000
H        4.16786200      0.04090300     -0.25679900
H        2.81446700      2.10274900     -0.51253900
H       -3.60419554     -1.53758902      0.30793023
H       -3.62835354     -1.36430102     -1.25222877
H       -2.60669400      1.37209600     -0.35450800
H       -2.50520800      0.82220800      1.30885900
H       -0.52531300      2.16102000      1.72771900
H       -1.57063000      3.19390200      0.75264500
H        0.75699600      3.21772600     -0.16624000
H       -0.33792600      2.44551900     -1.31093200

B 9 10 F

--Link1--
%chk=mol_028_E_scan_pt1.chk
%nprocshared=8
%mem=16GB
#p wB97XD/6-311+G(d,p) Geom=Check Guess=Read Stable=Opt Pop=NBO7Read Density=Current scrf=(smd,solvent=water)

mol_028_E SP+NBO7/CMO after constrained opt at R0+0.05A  [oxime: C8=N9-O10]

1 1

$NBO CMO PRINT=2 E2PERT=0.05 BNDIDX $END

--Link1--
%chk=mol_028_E_scan_pt2.chk
%nprocshared=8
%mem=16GB
#p wB97XD/6-311+G(d,p) opt=(ModRedundant) SCF=(Tight,XQC) NoSymm scrf=(smd,solvent=water)

mol_028_E scan pt2 (R0+0.10A) rigid O-N displacement then constrained opt  [oxime: C8=N9-O10]

1 1
C        0.48756600     -2.66799700      0.49843100
C        1.07668000     -1.32195500      0.16852900
C        2.46399100     -1.21718600      0.08096300
C        3.08659100     -0.00597300     -0.18900600
C        2.33097600      1.14760900     -0.33895900
C        0.94565400      1.09339100     -0.24361700
C        0.31596300     -0.14800100     -0.02320500
C       -1.16420800     -0.12263600     -0.02370900
N       -1.71734300     -1.17472800     -0.50452300
O       -3.32066608     -0.98236304     -0.42477554
C       -1.90447400      1.10280000      0.43932700
C       -0.98090900      2.27584600      0.73993800
C        0.11628900      2.34766100     -0.31731300
H       -0.34433400     -2.58797000      1.20031000
H        1.25546600     -3.30382700      0.94216400
H        0.11207500     -3.16838300     -0.39705300
H        3.06529900     -2.10632900      0.23666000
H        4.16786200      0.04090300     -0.25679900
H        2.81446700      2.10274900     -0.51253900
H       -3.65377908     -1.53164004      0.31039646
H       -3.67793708     -1.35835204     -1.24976254
H       -2.60669400      1.37209600     -0.35450800
H       -2.50520800      0.82220800      1.30885900
H       -0.52531300      2.16102000      1.72771900
H       -1.57063000      3.19390200      0.75264500
H        0.75699600      3.21772600     -0.16624000
H       -0.33792600      2.44551900     -1.31093200

B 9 10 F

--Link1--
%chk=mol_028_E_scan_pt2.chk
%nprocshared=8
%mem=16GB
#p wB97XD/6-311+G(d,p) Geom=Check Guess=Read Stable=Opt Pop=NBO7Read Density=Current scrf=(smd,solvent=water)

mol_028_E SP+NBO7/CMO after constrained opt at R0+0.10A  [oxime: C8=N9-O10]

1 1

$NBO CMO PRINT=2 E2PERT=0.05 BNDIDX $END

--Link1--
%chk=mol_028_E_scan_pt3.chk
%nprocshared=8
%mem=16GB
#p wB97XD/6-311+G(d,p) opt=(ModRedundant) SCF=(Tight,XQC) NoSymm scrf=(smd,solvent=water)

mol_028_E scan pt3 (R0+0.15A) rigid O-N displacement then constrained opt  [oxime: C8=N9-O10]

1 1
C        0.48756600     -2.66799700      0.49843100
C        1.07668000     -1.32195500      0.16852900
C        2.46399100     -1.21718600      0.08096300
C        3.08659100     -0.00597300     -0.18900600
C        2.33097600      1.14760900     -0.33895900
C        0.94565400      1.09339100     -0.24361700
C        0.31596300     -0.14800100     -0.02320500
C       -1.16420800     -0.12263600     -0.02370900
N       -1.71734300     -1.17472800     -0.50452300
O       -3.37024962     -0.97641406     -0.42230931
C       -1.90447400      1.10280000      0.43932700
C       -0.98090900      2.27584600      0.73993800
C        0.11628900      2.34766100     -0.31731300
H       -0.34433400     -2.58797000      1.20031000
H        1.25546600     -3.30382700      0.94216400
H        0.11207500     -3.16838300     -0.39705300
H        3.06529900     -2.10632900      0.23666000
H        4.16786200      0.04090300     -0.25679900
H        2.81446700      2.10274900     -0.51253900
H       -3.70336262     -1.52569106      0.31286269
H       -3.72752062     -1.35240306     -1.24729631
H       -2.60669400      1.37209600     -0.35450800
H       -2.50520800      0.82220800      1.30885900
H       -0.52531300      2.16102000      1.72771900
H       -1.57063000      3.19390200      0.75264500
H        0.75699600      3.21772600     -0.16624000
H       -0.33792600      2.44551900     -1.31093200

B 9 10 F

--Link1--
%chk=mol_028_E_scan_pt3.chk
%nprocshared=8
%mem=16GB
#p wB97XD/6-311+G(d,p) Geom=Check Guess=Read Stable=Opt Pop=NBO7Read Density=Current scrf=(smd,solvent=water)

mol_028_E SP+NBO7/CMO after constrained opt at R0+0.15A  [oxime: C8=N9-O10]

1 1

$NBO CMO PRINT=2 E2PERT=0.05 BNDIDX $END

--Link1--
%chk=mol_028_E_scan_pt4.chk
%nprocshared=8
%mem=16GB
#p wB97XD/6-311+G(d,p) opt=(ModRedundant) SCF=(Tight,XQC) NoSymm scrf=(smd,solvent=water)

mol_028_E scan pt4 (R0+0.20A) rigid O-N displacement then constrained opt  [oxime: C8=N9-O10]

1 1
C        0.48756600     -2.66799700      0.49843100
C        1.07668000     -1.32195500      0.16852900
C        2.46399100     -1.21718600      0.08096300
C        3.08659100     -0.00597300     -0.18900600
C        2.33097600      1.14760900     -0.33895900
C        0.94565400      1.09339100     -0.24361700
C        0.31596300     -0.14800100     -0.02320500
C       -1.16420800     -0.12263600     -0.02370900
N       -1.71734300     -1.17472800     -0.50452300
O       -3.41983316     -0.97046508     -0.41984309
C       -1.90447400      1.10280000      0.43932700
C       -0.98090900      2.27584600      0.73993800
C        0.11628900      2.34766100     -0.31731300
H       -0.34433400     -2.58797000      1.20031000
H        1.25546600     -3.30382700      0.94216400
H        0.11207500     -3.16838300     -0.39705300
H        3.06529900     -2.10632900      0.23666000
H        4.16786200      0.04090300     -0.25679900
H        2.81446700      2.10274900     -0.51253900
H       -3.75294616     -1.51974208      0.31532891
H       -3.77710416     -1.34645408     -1.24483009
H       -2.60669400      1.37209600     -0.35450800
H       -2.50520800      0.82220800      1.30885900
H       -0.52531300      2.16102000      1.72771900
H       -1.57063000      3.19390200      0.75264500
H        0.75699600      3.21772600     -0.16624000
H       -0.33792600      2.44551900     -1.31093200

B 9 10 F

--Link1--
%chk=mol_028_E_scan_pt4.chk
%nprocshared=8
%mem=16GB
#p wB97XD/6-311+G(d,p) Geom=Check Guess=Read Stable=Opt Pop=NBO7Read Density=Current scrf=(smd,solvent=water)

mol_028_E SP+NBO7/CMO after constrained opt at R0+0.20A  [oxime: C8=N9-O10]

1 1

$NBO CMO PRINT=2 E2PERT=0.05 BNDIDX $END

--Link1--
%chk=mol_028_E_scan_pt5.chk
%nprocshared=8
%mem=16GB
#p wB97XD/6-311+G(d,p) opt=(ModRedundant) SCF=(Tight,XQC) NoSymm scrf=(smd,solvent=water)

mol_028_E scan pt5 (R0+0.25A) rigid O-N displacement then constrained opt  [oxime: C8=N9-O10]

1 1
C        0.48756600     -2.66799700      0.49843100
C        1.07668000     -1.32195500      0.16852900
C        2.46399100     -1.21718600      0.08096300
C        3.08659100     -0.00597300     -0.18900600
C        2.33097600      1.14760900     -0.33895900
C        0.94565400      1.09339100     -0.24361700
C        0.31596300     -0.14800100     -0.02320500
C       -1.16420800     -0.12263600     -0.02370900
N       -1.71734300     -1.17472800     -0.50452300
O       -3.46941670     -0.96451610     -0.41737686
C       -1.90447400      1.10280000      0.43932700
C       -0.98090900      2.27584600      0.73993800
C        0.11628900      2.34766100     -0.31731300
H       -0.34433400     -2.58797000      1.20031000
H        1.25546600     -3.30382700      0.94216400
H        0.11207500     -3.16838300     -0.39705300
H        3.06529900     -2.10632900      0.23666000
H        4.16786200      0.04090300     -0.25679900
H        2.81446700      2.10274900     -0.51253900
H       -3.80252970     -1.51379310      0.31779514
H       -3.82668770     -1.34050510     -1.24236386
H       -2.60669400      1.37209600     -0.35450800
H       -2.50520800      0.82220800      1.30885900
H       -0.52531300      2.16102000      1.72771900
H       -1.57063000      3.19390200      0.75264500
H        0.75699600      3.21772600     -0.16624000
H       -0.33792600      2.44551900     -1.31093200

B 9 10 F

--Link1--
%chk=mol_028_E_scan_pt5.chk
%nprocshared=8
%mem=16GB
#p wB97XD/6-311+G(d,p) Geom=Check Guess=Read Stable=Opt Pop=NBO7Read Density=Current scrf=(smd,solvent=water)

mol_028_E SP+NBO7/CMO after constrained opt at R0+0.25A  [oxime: C8=N9-O10]

1 1

$NBO CMO PRINT=2 E2PERT=0.05 BNDIDX $END

--Link1--
%chk=mol_028_E_scan_pt6.chk
%nprocshared=8
%mem=16GB
#p wB97XD/6-311+G(d,p) opt=(ModRedundant) SCF=(Tight,XQC) NoSymm scrf=(smd,solvent=water)

mol_028_E scan pt6 (R0+0.30A) rigid O-N displacement then constrained opt  [oxime: C8=N9-O10]

1 1
C        0.48756600     -2.66799700      0.49843100
C        1.07668000     -1.32195500      0.16852900
C        2.46399100     -1.21718600      0.08096300
C        3.08659100     -0.00597300     -0.18900600
C        2.33097600      1.14760900     -0.33895900
C        0.94565400      1.09339100     -0.24361700
C        0.31596300     -0.14800100     -0.02320500
C       -1.16420800     -0.12263600     -0.02370900
N       -1.71734300     -1.17472800     -0.50452300
O       -3.51900024     -0.95856713     -0.41491063
C       -1.90447400      1.10280000      0.43932700
C       -0.98090900      2.27584600      0.73993800
C        0.11628900      2.34766100     -0.31731300
H       -0.34433400     -2.58797000      1.20031000
H        1.25546600     -3.30382700      0.94216400
H        0.11207500     -3.16838300     -0.39705300
H        3.06529900     -2.10632900      0.23666000
H        4.16786200      0.04090300     -0.25679900
H        2.81446700      2.10274900     -0.51253900
H       -3.85211324     -1.50784413      0.32026137
H       -3.87627124     -1.33455613     -1.23989763
H       -2.60669400      1.37209600     -0.35450800
H       -2.50520800      0.82220800      1.30885900
H       -0.52531300      2.16102000      1.72771900
H       -1.57063000      3.19390200      0.75264500
H        0.75699600      3.21772600     -0.16624000
H       -0.33792600      2.44551900     -1.31093200

B 9 10 F

--Link1--
%chk=mol_028_E_scan_pt6.chk
%nprocshared=8
%mem=16GB
#p wB97XD/6-311+G(d,p) Geom=Check Guess=Read Stable=Opt Pop=NBO7Read Density=Current scrf=(smd,solvent=water)

mol_028_E SP+NBO7/CMO after constrained opt at R0+0.30A  [oxime: C8=N9-O10]

1 1

$NBO CMO PRINT=2 E2PERT=0.05 BNDIDX $END


