%chk=mol_021_Z_scan_pt1.chk
%nprocshared=8
%mem=16GB
#p wB97XD/6-311+G(d,p) opt=(ModRedundant) SCF=(Tight,XQC) NoSymm scrf=(smd,solvent=water)

mol_021_Z scan pt1 (R0+0.05A) rigid O-N displacement then constrained opt  [oxime: C12=N13-O14]

1 1
C       -4.35310700      0.45049500      0.19731700
O       -3.51013900     -0.67743600     -0.03121700
C       -2.17388000     -0.48471900     -0.07353300
C       -1.39862400     -1.62534500     -0.32128700
C       -0.02878400     -1.52459000     -0.35512100
C        0.61413200     -0.28564100     -0.16004500
C       -0.16966300      0.86519300      0.03978700
C       -1.55763300      0.74897900      0.10067100
C        0.42761300      2.24828200      0.14997000
C        1.93851900      2.25428900      0.33099300
C        2.58389800      1.24100100     -0.61346900
C        2.06882700     -0.12037400     -0.23224100
N        3.03808600     -0.91790500      0.03201400
O        2.50495303     -2.30251955      0.54528852
H       -4.24076400      1.18829700     -0.60140100
H       -5.36988900      0.06319200      0.19658600
H       -4.13544900      0.90982600      1.16507800
H       -1.89067200     -2.57630300     -0.48589700
H        0.54904300     -2.41160600     -0.56847300
H       -2.14188500      1.64361100      0.27520100
H       -0.06353400      2.78824000      0.96258700
H        0.17354600      2.78033800     -0.77455400
H        2.33858200      3.24836900      0.12466900
H        2.20217200      2.00250800      1.36319700
H        2.28473000      1.43871100     -1.64781700
H        3.67139500      1.26513400     -0.55191800
H        2.24685003     -2.22173955      1.48424052
H        3.27318003     -2.89999355      0.50703752

B 13 14 F

--Link1--
%chk=mol_021_Z_scan_pt1.chk
%nprocshared=8
%mem=16GB
#p wB97XD/6-311+G(d,p) Geom=Check Guess=Read Stable=Opt Pop=NBO7Read Density=Current scrf=(smd,solvent=water)

mol_021_Z SP+NBO7/CMO after constrained opt at R0+0.05A  [oxime: C12=N13-O14]

1 1

$NBO CMO PRINT=2 E2PERT=0.05 BNDIDX $END

--Link1--
%chk=mol_021_Z_scan_pt2.chk
%nprocshared=8
%mem=16GB
#p wB97XD/6-311+G(d,p) opt=(ModRedundant) SCF=(Tight,XQC) NoSymm scrf=(smd,solvent=water)

mol_021_Z scan pt2 (R0+0.10A) rigid O-N displacement then constrained opt  [oxime: C12=N13-O14]

1 1
C       -4.35310700      0.45049500      0.19731700
O       -3.51013900     -0.67743600     -0.03121700
C       -2.17388000     -0.48471900     -0.07353300
C       -1.39862400     -1.62534500     -0.32128700
C       -0.02878400     -1.52459000     -0.35512100
C        0.61413200     -0.28564100     -0.16004500
C       -0.16966300      0.86519300      0.03978700
C       -1.55763300      0.74897900      0.10067100
C        0.42761300      2.24828200      0.14997000
C        1.93851900      2.25428900      0.33099300
C        2.58389800      1.24100100     -0.61346900
C        2.06882700     -0.12037400     -0.23224100
N        3.03808600     -0.91790500      0.03201400
O        2.48797407     -2.34661610      0.56163505
H       -4.24076400      1.18829700     -0.60140100
H       -5.36988900      0.06319200      0.19658600
H       -4.13544900      0.90982600      1.16507800
H       -1.89067200     -2.57630300     -0.48589700
H        0.54904300     -2.41160600     -0.56847300
H       -2.14188500      1.64361100      0.27520100
H       -0.06353400      2.78824000      0.96258700
H        0.17354600      2.78033800     -0.77455400
H        2.33858200      3.24836900      0.12466900
H        2.20217200      2.00250800      1.36319700
H        2.28473000      1.43871100     -1.64781700
H        3.67139500      1.26513400     -0.55191800
H        2.22987107     -2.26583610      1.50058705
H        3.25620107     -2.94409010      0.52338405

B 13 14 F

--Link1--
%chk=mol_021_Z_scan_pt2.chk
%nprocshared=8
%mem=16GB
#p wB97XD/6-311+G(d,p) Geom=Check Guess=Read Stable=Opt Pop=NBO7Read Density=Current scrf=(smd,solvent=water)

mol_021_Z SP+NBO7/CMO after constrained opt at R0+0.10A  [oxime: C12=N13-O14]

1 1

$NBO CMO PRINT=2 E2PERT=0.05 BNDIDX $END

--Link1--
%chk=mol_021_Z_scan_pt3.chk
%nprocshared=8
%mem=16GB
#p wB97XD/6-311+G(d,p) opt=(ModRedundant) SCF=(Tight,XQC) NoSymm scrf=(smd,solvent=water)

mol_021_Z scan pt3 (R0+0.15A) rigid O-N displacement then constrained opt  [oxime: C12=N13-O14]

1 1
C       -4.35310700      0.45049500      0.19731700
O       -3.51013900     -0.67743600     -0.03121700
C       -2.17388000     -0.48471900     -0.07353300
C       -1.39862400     -1.62534500     -0.32128700
C       -0.02878400     -1.52459000     -0.35512100
C        0.61413200     -0.28564100     -0.16004500
C       -0.16966300      0.86519300      0.03978700
C       -1.55763300      0.74897900      0.10067100
C        0.42761300      2.24828200      0.14997000
C        1.93851900      2.25428900      0.33099300
C        2.58389800      1.24100100     -0.61346900
C        2.06882700     -0.12037400     -0.23224100
N        3.03808600     -0.91790500      0.03201400
O        2.47099510     -2.39071265      0.57798157
H       -4.24076400      1.18829700     -0.60140100
H       -5.36988900      0.06319200      0.19658600
H       -4.13544900      0.90982600      1.16507800
H       -1.89067200     -2.57630300     -0.48589700
H        0.54904300     -2.41160600     -0.56847300
H       -2.14188500      1.64361100      0.27520100
H       -0.06353400      2.78824000      0.96258700
H        0.17354600      2.78033800     -0.77455400
H        2.33858200      3.24836900      0.12466900
H        2.20217200      2.00250800      1.36319700
H        2.28473000      1.43871100     -1.64781700
H        3.67139500      1.26513400     -0.55191800
H        2.21289210     -2.30993265      1.51693357
H        3.23922210     -2.98818665      0.53973057

B 13 14 F

--Link1--
%chk=mol_021_Z_scan_pt3.chk
%nprocshared=8
%mem=16GB
#p wB97XD/6-311+G(d,p) Geom=Check Guess=Read Stable=Opt Pop=NBO7Read Density=Current scrf=(smd,solvent=water)

mol_021_Z SP+NBO7/CMO after constrained opt at R0+0.15A  [oxime: C12=N13-O14]

1 1

$NBO CMO PRINT=2 E2PERT=0.05 BNDIDX $END

--Link1--
%chk=mol_021_Z_scan_pt4.chk
%nprocshared=8
%mem=16GB
#p wB97XD/6-311+G(d,p) opt=(ModRedundant) SCF=(Tight,XQC) NoSymm scrf=(smd,solvent=water)

mol_021_Z scan pt4 (R0+0.20A) rigid O-N displacement then constrained opt  [oxime: C12=N13-O14]

1 1
C       -4.35310700      0.45049500      0.19731700
O       -3.51013900     -0.67743600     -0.03121700
C       -2.17388000     -0.48471900     -0.07353300
C       -1.39862400     -1.62534500     -0.32128700
C       -0.02878400     -1.52459000     -0.35512100
C        0.61413200     -0.28564100     -0.16004500
C       -0.16966300      0.86519300      0.03978700
C       -1.55763300      0.74897900      0.10067100
C        0.42761300      2.24828200      0.14997000
C        1.93851900      2.25428900      0.33099300
C        2.58389800      1.24100100     -0.61346900
C        2.06882700     -0.12037400     -0.23224100
N        3.03808600     -0.91790500      0.03201400
O        2.45401613     -2.43480920      0.59432810
H       -4.24076400      1.18829700     -0.60140100
H       -5.36988900      0.06319200      0.19658600
H       -4.13544900      0.90982600      1.16507800
H       -1.89067200     -2.57630300     -0.48589700
H        0.54904300     -2.41160600     -0.56847300
H       -2.14188500      1.64361100      0.27520100
H       -0.06353400      2.78824000      0.96258700
H        0.17354600      2.78033800     -0.77455400
H        2.33858200      3.24836900      0.12466900
H        2.20217200      2.00250800      1.36319700
H        2.28473000      1.43871100     -1.64781700
H        3.67139500      1.26513400     -0.55191800
H        2.19591313     -2.35402920      1.53328010
H        3.22224313     -3.03228320      0.55607710

B 13 14 F

--Link1--
%chk=mol_021_Z_scan_pt4.chk
%nprocshared=8
%mem=16GB
#p wB97XD/6-311+G(d,p) Geom=Check Guess=Read Stable=Opt Pop=NBO7Read Density=Current scrf=(smd,solvent=water)

mol_021_Z SP+NBO7/CMO after constrained opt at R0+0.20A  [oxime: C12=N13-O14]

1 1

$NBO CMO PRINT=2 E2PERT=0.05 BNDIDX $END

--Link1--
%chk=mol_021_Z_scan_pt5.chk
%nprocshared=8
%mem=16GB
#p wB97XD/6-311+G(d,p) opt=(ModRedundant) SCF=(Tight,XQC) NoSymm scrf=(smd,solvent=water)

mol_021_Z scan pt5 (R0+0.25A) rigid O-N displacement then constrained opt  [oxime: C12=N13-O14]

1 1
C       -4.35310700      0.45049500      0.19731700
O       -3.51013900     -0.67743600     -0.03121700
C       -2.17388000     -0.48471900     -0.07353300
C       -1.39862400     -1.62534500     -0.32128700
C       -0.02878400     -1.52459000     -0.35512100
C        0.61413200     -0.28564100     -0.16004500
C       -0.16966300      0.86519300      0.03978700
C       -1.55763300      0.74897900      0.10067100
C        0.42761300      2.24828200      0.14997000
C        1.93851900      2.25428900      0.33099300
C        2.58389800      1.24100100     -0.61346900
C        2.06882700     -0.12037400     -0.23224100
N        3.03808600     -0.91790500      0.03201400
O        2.43703716     -2.47890575      0.61067462
H       -4.24076400      1.18829700     -0.60140100
H       -5.36988900      0.06319200      0.19658600
H       -4.13544900      0.90982600      1.16507800
H       -1.89067200     -2.57630300     -0.48589700
H        0.54904300     -2.41160600     -0.56847300
H       -2.14188500      1.64361100      0.27520100
H       -0.06353400      2.78824000      0.96258700
H        0.17354600      2.78033800     -0.77455400
H        2.33858200      3.24836900      0.12466900
H        2.20217200      2.00250800      1.36319700
H        2.28473000      1.43871100     -1.64781700
H        3.67139500      1.26513400     -0.55191800
H        2.17893416     -2.39812575      1.54962662
H        3.20526416     -3.07637975      0.57242362

B 13 14 F

--Link1--
%chk=mol_021_Z_scan_pt5.chk
%nprocshared=8
%mem=16GB
#p wB97XD/6-311+G(d,p) Geom=Check Guess=Read Stable=Opt Pop=NBO7Read Density=Current scrf=(smd,solvent=water)

mol_021_Z SP+NBO7/CMO after constrained opt at R0+0.25A  [oxime: C12=N13-O14]

1 1

$NBO CMO PRINT=2 E2PERT=0.05 BNDIDX $END

--Link1--
%chk=mol_021_Z_scan_pt6.chk
%nprocshared=8
%mem=16GB
#p wB97XD/6-311+G(d,p) opt=(ModRedundant) SCF=(Tight,XQC) NoSymm scrf=(smd,solvent=water)

mol_021_Z scan pt6 (R0+0.30A) rigid O-N displacement then constrained opt  [oxime: C12=N13-O14]

1 1
C       -4.35310700      0.45049500      0.19731700
O       -3.51013900     -0.67743600     -0.03121700
C       -2.17388000     -0.48471900     -0.07353300
C       -1.39862400     -1.62534500     -0.32128700
C       -0.02878400     -1.52459000     -0.35512100
C        0.61413200     -0.28564100     -0.16004500
C       -0.16966300      0.86519300      0.03978700
C       -1.55763300      0.74897900      0.10067100
C        0.42761300      2.24828200      0.14997000
C        1.93851900      2.25428900      0.33099300
C        2.58389800      1.24100100     -0.61346900
C        2.06882700     -0.12037400     -0.23224100
N        3.03808600     -0.91790500      0.03201400
O        2.42005820     -2.52300231      0.62702115
H       -4.24076400      1.18829700     -0.60140100
H       -5.36988900      0.06319200      0.19658600
H       -4.13544900      0.90982600      1.16507800
H       -1.89067200     -2.57630300     -0.48589700
H        0.54904300     -2.41160600     -0.56847300
H       -2.14188500      1.64361100      0.27520100
H       -0.06353400      2.78824000      0.96258700
H        0.17354600      2.78033800     -0.77455400
H        2.33858200      3.24836900      0.12466900
H        2.20217200      2.00250800      1.36319700
H        2.28473000      1.43871100     -1.64781700
H        3.67139500      1.26513400     -0.55191800
H        2.16195520     -2.44222231      1.56597315
H        3.18828520     -3.12047631      0.58877015

B 13 14 F

--Link1--
%chk=mol_021_Z_scan_pt6.chk
%nprocshared=8
%mem=16GB
#p wB97XD/6-311+G(d,p) Geom=Check Guess=Read Stable=Opt Pop=NBO7Read Density=Current scrf=(smd,solvent=water)

mol_021_Z SP+NBO7/CMO after constrained opt at R0+0.30A  [oxime: C12=N13-O14]

1 1

$NBO CMO PRINT=2 E2PERT=0.05 BNDIDX $END


