26
mol_027_E_opt
O        4.899800     -0.291800     -0.536100
N        3.962200      0.479800     -0.386000
O        4.038500      1.703000     -0.333700
C        2.617000     -0.120100     -0.255200
C        2.474100     -1.501800     -0.305100
C        1.211600     -2.052500     -0.182200
C        0.084200     -1.250300     -0.010500
C        0.256100      0.148600      0.038200
C        1.530700      0.709400     -0.084400
C       -0.934100      1.010000      0.235500
N       -0.607800      2.225000      0.461200
O       -2.031500      3.084000      0.757600
C       -2.310900      0.419800      0.185800
C       -2.337800     -0.945400     -0.477600
C       -1.278200     -1.851200      0.119200
H        3.347800     -2.120500     -0.439300
H        1.092900     -3.125800     -0.224500
H        1.674600      1.779100     -0.051700
H       -1.786100      3.537500      1.588300
H       -1.984300      3.756000      0.048800
H       -2.643000      0.355800      1.224700
H       -2.984300      1.118400     -0.306300
H       -2.171100     -0.840100     -1.550300
H       -3.324900     -1.379400     -0.346300
H       -1.490700     -2.016600      1.180700
H       -1.304900     -2.831000     -0.351000
