%chk=mol_029_Z_sp2.chk
%nprocshared=8
%mem=16GB
#p wB97XD/6-311+G(d,p) sp pop=nbo7read scrf=(smd,solvent=water)

mol_029_Z_sp2  R(N-O)=1.6066A  [oxime: C3=N2-O1]

1 1
O        0.37680700     -2.47957500     -1.05701100
N        1.61297700     -1.74791700     -0.33753800
C        1.20156200     -0.63358600      0.12828500
C        2.31812600      0.17644500      0.75001900
C        2.09803400      1.69032300      0.55449400
C        1.14738800      2.00119200     -0.60595800
C       -0.16754300      1.31861600     -0.35122400
C       -1.39792900      1.95435400     -0.46741300
C       -2.57207000      1.28127200     -0.14959100
C       -2.54234500     -0.03252100      0.30523000
C       -1.31891100     -0.65774000      0.40261600
F       -1.27309800     -1.91723200      0.88706600
C       -0.13018700     -0.02284200      0.06299200
H        0.03958000     -3.15449700     -0.43889000
H        0.78776400     -2.95707200     -1.79952600
H        3.26804100     -0.15053500      0.32632400
H        2.32456000     -0.07663600      1.81341300
H        3.06520900      2.16374900      0.38365400
H        1.67875500      2.11595500      1.46886500
H        0.99643500      3.07702100     -0.70011300
H        1.57705000      1.64456900     -1.54888600
H       -1.43343700      2.98646600     -0.79593400
H       -3.52550900      1.78858000     -0.23751600
H       -3.44262500     -0.56357000      0.58715300

$NBO E2PERT BNDIDX NBOSUM CMO $END


