%chk=mol_005_E_opt.chk
%nprocshared=8
%mem=16GB
#p wB97XD/6-311+G(d,p) opt scrf=(smd,solvent=water)

mol_005_E opt  [oxime: C3=N2-O1]

1 1
O       -3.37180000      0.92800000      0.94500000
N       -1.76370000      1.35160000      0.86140000
C       -1.15380000      0.35620000      0.34160000
C       -1.64990000     -0.98200000     -0.13740000
C       -0.40410000     -1.70900000     -0.66670000
C        0.72530000     -0.75030000     -0.44030000
C        2.06080000     -0.92620000     -0.73440000
C        2.93950000      0.11230000     -0.43660000
Br       4.76990000     -0.09940000     -0.82760000
C        2.50600000      1.30980000      0.14450000
C        1.17090000      1.48700000      0.43950000
C        0.28390000      0.44870000      0.14340000
H       -3.55100000      1.05350000      1.89730000
H       -3.78600000      1.67840000      0.47610000
H       -2.12770000     -1.49830000      0.69280000
H       -2.41400000     -0.82930000     -0.89660000
H       -0.23360000     -2.64550000     -0.14180000
H       -0.50230000     -1.95150000     -1.72200000
H        2.42820000     -1.83710000     -1.18260000
H        3.22410000      2.08670000      0.35710000
H        0.84940000      2.41610000      0.88780000


