%chk=mol_005_E_scan_pt1.chk
%nprocshared=8
%mem=16GB
#p wB97XD/6-311+G(d,p) opt=(ModRedundant) SCF=(Tight,XQC) NoSymm scrf=(smd,solvent=water)

mol_005_E scan pt1 (R0+0.05A) rigid O-N displacement then constrained opt  [oxime: C3=N2-O1]

1 1
O        4.89253819     -0.62609812      0.00128681
N        3.43239800     -1.16623800     -0.00926300
C        2.65749700     -0.14693300     -0.00417800
C        2.98017700      1.31849100      0.00345600
C        1.61788700      2.03729000     -0.00631400
C        0.60572300      0.92807500     -0.00477500
C       -0.78023800      1.03429400     -0.00300600
C       -1.51664200     -0.14041600     -0.00105100
Br      -3.41501000     -0.03144700      0.00253800
C       -0.92180100     -1.40559900     -0.00086300
C        0.45779300     -1.50432900     -0.00270400
C        1.20834600     -0.32892200     -0.00476700
H        5.30295419     -0.91217812      0.83909781
H        5.37166819     -1.07328712     -0.72106819
H        3.57389700      1.55213500      0.88946700
H        3.59221500      1.55757900     -0.86830300
H        1.49346100      2.67760400      0.86891400
H        1.50121800      2.66593700     -0.89118400
H       -1.26265900      2.00389800     -0.00252200
H       -1.53187100     -2.29966300      0.00145600
H        0.93384100     -2.47718800     -0.00155500

B 2 1 F

--Link1--
%chk=mol_005_E_scan_pt1.chk
%nprocshared=8
%mem=16GB
#p wB97XD/6-311+G(d,p) Geom=Check Guess=Read Stable=Opt Pop=NBO7Read Density=Current scrf=(smd,solvent=water)

mol_005_E SP+NBO7/CMO after constrained opt at R0+0.05A  [oxime: C3=N2-O1]

1 1

$NBO CMO PRINT=2 E2PERT=0.05 BNDIDX $END

--Link1--
%chk=mol_005_E_scan_pt2.chk
%nprocshared=8
%mem=16GB
#p wB97XD/6-311+G(d,p) opt=(ModRedundant) SCF=(Tight,XQC) NoSymm scrf=(smd,solvent=water)

mol_005_E scan pt2 (R0+0.10A) rigid O-N displacement then constrained opt  [oxime: C3=N2-O1]

1 1
O        4.93943137     -0.60875124      0.00162563
N        3.43239800     -1.16623800     -0.00926300
C        2.65749700     -0.14693300     -0.00417800
C        2.98017700      1.31849100      0.00345600
C        1.61788700      2.03729000     -0.00631400
C        0.60572300      0.92807500     -0.00477500
C       -0.78023800      1.03429400     -0.00300600
C       -1.51664200     -0.14041600     -0.00105100
Br      -3.41501000     -0.03144700      0.00253800
C       -0.92180100     -1.40559900     -0.00086300
C        0.45779300     -1.50432900     -0.00270400
C        1.20834600     -0.32892200     -0.00476700
H        5.34984737     -0.89483124      0.83943663
H        5.41856137     -1.05594024     -0.72072937
H        3.57389700      1.55213500      0.88946700
H        3.59221500      1.55757900     -0.86830300
H        1.49346100      2.67760400      0.86891400
H        1.50121800      2.66593700     -0.89118400
H       -1.26265900      2.00389800     -0.00252200
H       -1.53187100     -2.29966300      0.00145600
H        0.93384100     -2.47718800     -0.00155500

B 2 1 F

--Link1--
%chk=mol_005_E_scan_pt2.chk
%nprocshared=8
%mem=16GB
#p wB97XD/6-311+G(d,p) Geom=Check Guess=Read Stable=Opt Pop=NBO7Read Density=Current scrf=(smd,solvent=water)

mol_005_E SP+NBO7/CMO after constrained opt at R0+0.10A  [oxime: C3=N2-O1]

1 1

$NBO CMO PRINT=2 E2PERT=0.05 BNDIDX $END

--Link1--
%chk=mol_005_E_scan_pt3.chk
%nprocshared=8
%mem=16GB
#p wB97XD/6-311+G(d,p) opt=(ModRedundant) SCF=(Tight,XQC) NoSymm scrf=(smd,solvent=water)

mol_005_E scan pt3 (R0+0.15A) rigid O-N displacement then constrained opt  [oxime: C3=N2-O1]

1 1
O        4.98632456     -0.59140435      0.00196444
N        3.43239800     -1.16623800     -0.00926300
C        2.65749700     -0.14693300     -0.00417800
C        2.98017700      1.31849100      0.00345600
C        1.61788700      2.03729000     -0.00631400
C        0.60572300      0.92807500     -0.00477500
C       -0.78023800      1.03429400     -0.00300600
C       -1.51664200     -0.14041600     -0.00105100
Br      -3.41501000     -0.03144700      0.00253800
C       -0.92180100     -1.40559900     -0.00086300
C        0.45779300     -1.50432900     -0.00270400
C        1.20834600     -0.32892200     -0.00476700
H        5.39674056     -0.87748435      0.83977544
H        5.46545456     -1.03859335     -0.72039056
H        3.57389700      1.55213500      0.88946700
H        3.59221500      1.55757900     -0.86830300
H        1.49346100      2.67760400      0.86891400
H        1.50121800      2.66593700     -0.89118400
H       -1.26265900      2.00389800     -0.00252200
H       -1.53187100     -2.29966300      0.00145600
H        0.93384100     -2.47718800     -0.00155500

B 2 1 F

--Link1--
%chk=mol_005_E_scan_pt3.chk
%nprocshared=8
%mem=16GB
#p wB97XD/6-311+G(d,p) Geom=Check Guess=Read Stable=Opt Pop=NBO7Read Density=Current scrf=(smd,solvent=water)

mol_005_E SP+NBO7/CMO after constrained opt at R0+0.15A  [oxime: C3=N2-O1]

1 1

$NBO CMO PRINT=2 E2PERT=0.05 BNDIDX $END

--Link1--
%chk=mol_005_E_scan_pt4.chk
%nprocshared=8
%mem=16GB
#p wB97XD/6-311+G(d,p) opt=(ModRedundant) SCF=(Tight,XQC) NoSymm scrf=(smd,solvent=water)

mol_005_E scan pt4 (R0+0.20A) rigid O-N displacement then constrained opt  [oxime: C3=N2-O1]

1 1
O        5.03321774     -0.57405747      0.00230325
N        3.43239800     -1.16623800     -0.00926300
C        2.65749700     -0.14693300     -0.00417800
C        2.98017700      1.31849100      0.00345600
C        1.61788700      2.03729000     -0.00631400
C        0.60572300      0.92807500     -0.00477500
C       -0.78023800      1.03429400     -0.00300600
C       -1.51664200     -0.14041600     -0.00105100
Br      -3.41501000     -0.03144700      0.00253800
C       -0.92180100     -1.40559900     -0.00086300
C        0.45779300     -1.50432900     -0.00270400
C        1.20834600     -0.32892200     -0.00476700
H        5.44363374     -0.86013747      0.84011425
H        5.51234774     -1.02124647     -0.72005175
H        3.57389700      1.55213500      0.88946700
H        3.59221500      1.55757900     -0.86830300
H        1.49346100      2.67760400      0.86891400
H        1.50121800      2.66593700     -0.89118400
H       -1.26265900      2.00389800     -0.00252200
H       -1.53187100     -2.29966300      0.00145600
H        0.93384100     -2.47718800     -0.00155500

B 2 1 F

--Link1--
%chk=mol_005_E_scan_pt4.chk
%nprocshared=8
%mem=16GB
#p wB97XD/6-311+G(d,p) Geom=Check Guess=Read Stable=Opt Pop=NBO7Read Density=Current scrf=(smd,solvent=water)

mol_005_E SP+NBO7/CMO after constrained opt at R0+0.20A  [oxime: C3=N2-O1]

1 1

$NBO CMO PRINT=2 E2PERT=0.05 BNDIDX $END

--Link1--
%chk=mol_005_E_scan_pt5.chk
%nprocshared=8
%mem=16GB
#p wB97XD/6-311+G(d,p) opt=(ModRedundant) SCF=(Tight,XQC) NoSymm scrf=(smd,solvent=water)

mol_005_E scan pt5 (R0+0.25A) rigid O-N displacement then constrained opt  [oxime: C3=N2-O1]

1 1
O        5.08011093     -0.55671059      0.00264206
N        3.43239800     -1.16623800     -0.00926300
C        2.65749700     -0.14693300     -0.00417800
C        2.98017700      1.31849100      0.00345600
C        1.61788700      2.03729000     -0.00631400
C        0.60572300      0.92807500     -0.00477500
C       -0.78023800      1.03429400     -0.00300600
C       -1.51664200     -0.14041600     -0.00105100
Br      -3.41501000     -0.03144700      0.00253800
C       -0.92180100     -1.40559900     -0.00086300
C        0.45779300     -1.50432900     -0.00270400
C        1.20834600     -0.32892200     -0.00476700
H        5.49052693     -0.84279059      0.84045306
H        5.55924093     -1.00389959     -0.71971294
H        3.57389700      1.55213500      0.88946700
H        3.59221500      1.55757900     -0.86830300
H        1.49346100      2.67760400      0.86891400
H        1.50121800      2.66593700     -0.89118400
H       -1.26265900      2.00389800     -0.00252200
H       -1.53187100     -2.29966300      0.00145600
H        0.93384100     -2.47718800     -0.00155500

B 2 1 F

--Link1--
%chk=mol_005_E_scan_pt5.chk
%nprocshared=8
%mem=16GB
#p wB97XD/6-311+G(d,p) Geom=Check Guess=Read Stable=Opt Pop=NBO7Read Density=Current scrf=(smd,solvent=water)

mol_005_E SP+NBO7/CMO after constrained opt at R0+0.25A  [oxime: C3=N2-O1]

1 1

$NBO CMO PRINT=2 E2PERT=0.05 BNDIDX $END

--Link1--
%chk=mol_005_E_scan_pt6.chk
%nprocshared=8
%mem=16GB
#p wB97XD/6-311+G(d,p) opt=(ModRedundant) SCF=(Tight,XQC) NoSymm scrf=(smd,solvent=water)

mol_005_E scan pt6 (R0+0.30A) rigid O-N displacement then constrained opt  [oxime: C3=N2-O1]

1 1
O        5.12700412     -0.53936371      0.00298088
N        3.43239800     -1.16623800     -0.00926300
C        2.65749700     -0.14693300     -0.00417800
C        2.98017700      1.31849100      0.00345600
C        1.61788700      2.03729000     -0.00631400
C        0.60572300      0.92807500     -0.00477500
C       -0.78023800      1.03429400     -0.00300600
C       -1.51664200     -0.14041600     -0.00105100
Br      -3.41501000     -0.03144700      0.00253800
C       -0.92180100     -1.40559900     -0.00086300
C        0.45779300     -1.50432900     -0.00270400
C        1.20834600     -0.32892200     -0.00476700
H        5.53742012     -0.82544371      0.84079188
H        5.60613412     -0.98655271     -0.71937412
H        3.57389700      1.55213500      0.88946700
H        3.59221500      1.55757900     -0.86830300
H        1.49346100      2.67760400      0.86891400
H        1.50121800      2.66593700     -0.89118400
H       -1.26265900      2.00389800     -0.00252200
H       -1.53187100     -2.29966300      0.00145600
H        0.93384100     -2.47718800     -0.00155500

B 2 1 F

--Link1--
%chk=mol_005_E_scan_pt6.chk
%nprocshared=8
%mem=16GB
#p wB97XD/6-311+G(d,p) Geom=Check Guess=Read Stable=Opt Pop=NBO7Read Density=Current scrf=(smd,solvent=water)

mol_005_E SP+NBO7/CMO after constrained opt at R0+0.30A  [oxime: C3=N2-O1]

1 1

$NBO CMO PRINT=2 E2PERT=0.05 BNDIDX $END


