%chk=mol_005_E.chk
%nprocshared=8
%mem=16GB
#p wB97XD/6-311+G(d,p) sp gfinput gfprint scrf=(smd,solvent=water)

mol_005_E gfinput/gfprint basis extraction

1 1
O        4.84564500     -0.64344500      0.00094800
N        3.43239800     -1.16623800     -0.00926300
C        2.65749700     -0.14693300     -0.00417800
C        2.98017700      1.31849100      0.00345600
C        1.61788700      2.03729000     -0.00631400
C        0.60572300      0.92807500     -0.00477500
C       -0.78023800      1.03429400     -0.00300600
C       -1.51664200     -0.14041600     -0.00105100
Br      -3.41501000     -0.03144700      0.00253800
C       -0.92180100     -1.40559900     -0.00086300
C        0.45779300     -1.50432900     -0.00270400
C        1.20834600     -0.32892200     -0.00476700
H        5.25606100     -0.92952500      0.83875900
H        5.32477500     -1.09063400     -0.72140700
H        3.57389700      1.55213500      0.88946700
H        3.59221500      1.55757900     -0.86830300
H        1.49346100      2.67760400      0.86891400
H        1.50121800      2.66593700     -0.89118400
H       -1.26265900      2.00389800     -0.00252200
H       -1.53187100     -2.29966300      0.00145600
H        0.93384100     -2.47718800     -0.00155500


