24
mol_015_Z_opt
C        2.998500      0.863300     -0.186800
C        1.830200     -0.057500     -0.052000
C        1.980000     -1.437400      0.054600
C        0.897100     -2.304300      0.183200
C       -0.392400     -1.818200      0.204700
C       -0.566800     -0.435100      0.091900
C        0.528900      0.436400     -0.024300
C        0.117700      1.866400     -0.116400
C       -1.416300      1.851500      0.039900
C       -1.779100      0.362500      0.071500
N       -3.036200      0.209300      0.052700
O       -3.382500     -1.483700      0.090000
H        3.038100      1.569200      0.642900
H        2.933600      1.451700     -1.102100
H        3.934300      0.315000     -0.206000
H        2.978900     -1.850400      0.038800
H        1.072700     -3.366000      0.269500
H       -1.215800     -2.504200      0.319700
H        0.598500      2.473400      0.648800
H        0.418300      2.297000     -1.071300
H       -1.739300      2.308400      0.970800
H       -1.939000      2.361100     -0.763200
H       -4.169800     -1.471000      0.665800
H       -3.690000     -1.637800     -0.823100
