24
mol_015_E_opt
C        2.565500     -1.828300     -0.024400
C        1.879000     -0.500900     -0.087000
C        2.577900      0.698800     -0.231000
C        1.940400      1.938700     -0.289300
C        0.563300      2.034800     -0.205100
C       -0.143400      0.839000     -0.060400
C        0.494700     -0.407300     -0.002400
C       -0.481900     -1.532100      0.153300
C       -1.861600     -0.858200      0.195400
C       -1.581200      0.613800      0.056600
N       -2.355800      1.626200      0.028200
O       -3.916800      1.022800      0.187700
H        3.642600     -1.724100     -0.105000
H        2.347400     -2.341800      0.912400
H        2.230900     -2.484500     -0.828400
H        3.657800      0.667200     -0.300200
H        2.539200      2.831700     -0.401900
H        0.080800      3.001400     -0.251600
H       -0.284700     -2.100100      1.060100
H       -0.404100     -2.235600     -0.673200
H       -2.397600     -1.031800      1.126400
H       -2.520300     -1.173500     -0.611300
H       -4.340500      1.406000     -0.604600
H       -4.231400      1.537900      0.955600
