%chk=mol_004_Z_scan_pt1.chk
%nprocshared=8
%mem=16GB
#p wB97XD/6-311+G(d,p) opt=(ModRedundant) SCF=(Tight,XQC) NoSymm scrf=(smd,solvent=water)

mol_004_Z scan pt1 (R0+0.05A) rigid O-N displacement then constrained opt  [oxime: C3=N2-O1]

1 1
O       -2.86301049     -1.98043513      0.07026774
N       -3.22520000     -0.46740000      0.03152500
C       -2.14202900      0.21235700     -0.03762800
C       -2.29863100      1.71111700     -0.13663300
C       -0.88931100      2.27698600      0.09736900
C        0.00402000      1.07469400      0.02676900
C        1.39189400      1.06231800      0.04203900
C        2.02560400     -0.16839500     -0.00613200
Cl       3.77335400     -0.21826300      0.01382300
C        1.32484200     -1.37309600     -0.06923500
C       -0.05787200     -1.35552800     -0.08312800
C       -0.71887000     -0.12245400     -0.03663500
H       -3.53085549     -2.43549113     -0.47357526
H       -2.96338449     -2.30236813      0.98604674
H       -2.64774300      1.93663400     -1.14754500
H       -3.04327500      2.08235500      0.56614000
H       -0.61635900      3.02663200     -0.64640600
H       -0.80744100      2.74331400      1.08211500
H        1.95865700      1.98383600      0.09041100
H        1.85887400     -2.31379000     -0.10770900
H       -0.59652200     -2.28947700     -0.13556100

B 2 1 F

--Link1--
%chk=mol_004_Z_scan_pt1.chk
%nprocshared=8
%mem=16GB
#p wB97XD/6-311+G(d,p) Geom=Check Guess=Read Stable=Opt Pop=NBO7Read Density=Current scrf=(smd,solvent=water)

mol_004_Z SP+NBO7/CMO after constrained opt at R0+0.05A  [oxime: C3=N2-O1]

1 1

$NBO CMO PRINT=2 E2PERT=0.05 BNDIDX $END

--Link1--
%chk=mol_004_Z_scan_pt2.chk
%nprocshared=8
%mem=16GB
#p wB97XD/6-311+G(d,p) opt=(ModRedundant) SCF=(Tight,XQC) NoSymm scrf=(smd,solvent=water)

mol_004_Z scan pt2 (R0+0.10A) rigid O-N displacement then constrained opt  [oxime: C3=N2-O1]

1 1
O       -2.85137399     -2.02904627      0.07151247
N       -3.22520000     -0.46740000      0.03152500
C       -2.14202900      0.21235700     -0.03762800
C       -2.29863100      1.71111700     -0.13663300
C       -0.88931100      2.27698600      0.09736900
C        0.00402000      1.07469400      0.02676900
C        1.39189400      1.06231800      0.04203900
C        2.02560400     -0.16839500     -0.00613200
Cl       3.77335400     -0.21826300      0.01382300
C        1.32484200     -1.37309600     -0.06923500
C       -0.05787200     -1.35552800     -0.08312800
C       -0.71887000     -0.12245400     -0.03663500
H       -3.51921899     -2.48410227     -0.47233053
H       -2.95174799     -2.35097927      0.98729147
H       -2.64774300      1.93663400     -1.14754500
H       -3.04327500      2.08235500      0.56614000
H       -0.61635900      3.02663200     -0.64640600
H       -0.80744100      2.74331400      1.08211500
H        1.95865700      1.98383600      0.09041100
H        1.85887400     -2.31379000     -0.10770900
H       -0.59652200     -2.28947700     -0.13556100

B 2 1 F

--Link1--
%chk=mol_004_Z_scan_pt2.chk
%nprocshared=8
%mem=16GB
#p wB97XD/6-311+G(d,p) Geom=Check Guess=Read Stable=Opt Pop=NBO7Read Density=Current scrf=(smd,solvent=water)

mol_004_Z SP+NBO7/CMO after constrained opt at R0+0.10A  [oxime: C3=N2-O1]

1 1

$NBO CMO PRINT=2 E2PERT=0.05 BNDIDX $END

--Link1--
%chk=mol_004_Z_scan_pt3.chk
%nprocshared=8
%mem=16GB
#p wB97XD/6-311+G(d,p) opt=(ModRedundant) SCF=(Tight,XQC) NoSymm scrf=(smd,solvent=water)

mol_004_Z scan pt3 (R0+0.15A) rigid O-N displacement then constrained opt  [oxime: C3=N2-O1]

1 1
O       -2.83973748     -2.07765740      0.07275721
N       -3.22520000     -0.46740000      0.03152500
C       -2.14202900      0.21235700     -0.03762800
C       -2.29863100      1.71111700     -0.13663300
C       -0.88931100      2.27698600      0.09736900
C        0.00402000      1.07469400      0.02676900
C        1.39189400      1.06231800      0.04203900
C        2.02560400     -0.16839500     -0.00613200
Cl       3.77335400     -0.21826300      0.01382300
C        1.32484200     -1.37309600     -0.06923500
C       -0.05787200     -1.35552800     -0.08312800
C       -0.71887000     -0.12245400     -0.03663500
H       -3.50758248     -2.53271340     -0.47108579
H       -2.94011148     -2.39959040      0.98853621
H       -2.64774300      1.93663400     -1.14754500
H       -3.04327500      2.08235500      0.56614000
H       -0.61635900      3.02663200     -0.64640600
H       -0.80744100      2.74331400      1.08211500
H        1.95865700      1.98383600      0.09041100
H        1.85887400     -2.31379000     -0.10770900
H       -0.59652200     -2.28947700     -0.13556100

B 2 1 F

--Link1--
%chk=mol_004_Z_scan_pt3.chk
%nprocshared=8
%mem=16GB
#p wB97XD/6-311+G(d,p) Geom=Check Guess=Read Stable=Opt Pop=NBO7Read Density=Current scrf=(smd,solvent=water)

mol_004_Z SP+NBO7/CMO after constrained opt at R0+0.15A  [oxime: C3=N2-O1]

1 1

$NBO CMO PRINT=2 E2PERT=0.05 BNDIDX $END

--Link1--
%chk=mol_004_Z_scan_pt4.chk
%nprocshared=8
%mem=16GB
#p wB97XD/6-311+G(d,p) opt=(ModRedundant) SCF=(Tight,XQC) NoSymm scrf=(smd,solvent=water)

mol_004_Z scan pt4 (R0+0.20A) rigid O-N displacement then constrained opt  [oxime: C3=N2-O1]

1 1
O       -2.82810098     -2.12626854      0.07400194
N       -3.22520000     -0.46740000      0.03152500
C       -2.14202900      0.21235700     -0.03762800
C       -2.29863100      1.71111700     -0.13663300
C       -0.88931100      2.27698600      0.09736900
C        0.00402000      1.07469400      0.02676900
C        1.39189400      1.06231800      0.04203900
C        2.02560400     -0.16839500     -0.00613200
Cl       3.77335400     -0.21826300      0.01382300
C        1.32484200     -1.37309600     -0.06923500
C       -0.05787200     -1.35552800     -0.08312800
C       -0.71887000     -0.12245400     -0.03663500
H       -3.49594598     -2.58132454     -0.46984106
H       -2.92847498     -2.44820154      0.98978094
H       -2.64774300      1.93663400     -1.14754500
H       -3.04327500      2.08235500      0.56614000
H       -0.61635900      3.02663200     -0.64640600
H       -0.80744100      2.74331400      1.08211500
H        1.95865700      1.98383600      0.09041100
H        1.85887400     -2.31379000     -0.10770900
H       -0.59652200     -2.28947700     -0.13556100

B 2 1 F

--Link1--
%chk=mol_004_Z_scan_pt4.chk
%nprocshared=8
%mem=16GB
#p wB97XD/6-311+G(d,p) Geom=Check Guess=Read Stable=Opt Pop=NBO7Read Density=Current scrf=(smd,solvent=water)

mol_004_Z SP+NBO7/CMO after constrained opt at R0+0.20A  [oxime: C3=N2-O1]

1 1

$NBO CMO PRINT=2 E2PERT=0.05 BNDIDX $END

--Link1--
%chk=mol_004_Z_scan_pt5.chk
%nprocshared=8
%mem=16GB
#p wB97XD/6-311+G(d,p) opt=(ModRedundant) SCF=(Tight,XQC) NoSymm scrf=(smd,solvent=water)

mol_004_Z scan pt5 (R0+0.25A) rigid O-N displacement then constrained opt  [oxime: C3=N2-O1]

1 1
O       -2.81646447     -2.17487967      0.07524668
N       -3.22520000     -0.46740000      0.03152500
C       -2.14202900      0.21235700     -0.03762800
C       -2.29863100      1.71111700     -0.13663300
C       -0.88931100      2.27698600      0.09736900
C        0.00402000      1.07469400      0.02676900
C        1.39189400      1.06231800      0.04203900
C        2.02560400     -0.16839500     -0.00613200
Cl       3.77335400     -0.21826300      0.01382300
C        1.32484200     -1.37309600     -0.06923500
C       -0.05787200     -1.35552800     -0.08312800
C       -0.71887000     -0.12245400     -0.03663500
H       -3.48430947     -2.62993567     -0.46859632
H       -2.91683847     -2.49681267      0.99102568
H       -2.64774300      1.93663400     -1.14754500
H       -3.04327500      2.08235500      0.56614000
H       -0.61635900      3.02663200     -0.64640600
H       -0.80744100      2.74331400      1.08211500
H        1.95865700      1.98383600      0.09041100
H        1.85887400     -2.31379000     -0.10770900
H       -0.59652200     -2.28947700     -0.13556100

B 2 1 F

--Link1--
%chk=mol_004_Z_scan_pt5.chk
%nprocshared=8
%mem=16GB
#p wB97XD/6-311+G(d,p) Geom=Check Guess=Read Stable=Opt Pop=NBO7Read Density=Current scrf=(smd,solvent=water)

mol_004_Z SP+NBO7/CMO after constrained opt at R0+0.25A  [oxime: C3=N2-O1]

1 1

$NBO CMO PRINT=2 E2PERT=0.05 BNDIDX $END

--Link1--
%chk=mol_004_Z_scan_pt6.chk
%nprocshared=8
%mem=16GB
#p wB97XD/6-311+G(d,p) opt=(ModRedundant) SCF=(Tight,XQC) NoSymm scrf=(smd,solvent=water)

mol_004_Z scan pt6 (R0+0.30A) rigid O-N displacement then constrained opt  [oxime: C3=N2-O1]

1 1
O       -2.80482796     -2.22349080      0.07649141
N       -3.22520000     -0.46740000      0.03152500
C       -2.14202900      0.21235700     -0.03762800
C       -2.29863100      1.71111700     -0.13663300
C       -0.88931100      2.27698600      0.09736900
C        0.00402000      1.07469400      0.02676900
C        1.39189400      1.06231800      0.04203900
C        2.02560400     -0.16839500     -0.00613200
Cl       3.77335400     -0.21826300      0.01382300
C        1.32484200     -1.37309600     -0.06923500
C       -0.05787200     -1.35552800     -0.08312800
C       -0.71887000     -0.12245400     -0.03663500
H       -3.47267296     -2.67854680     -0.46735159
H       -2.90520196     -2.54542380      0.99227041
H       -2.64774300      1.93663400     -1.14754500
H       -3.04327500      2.08235500      0.56614000
H       -0.61635900      3.02663200     -0.64640600
H       -0.80744100      2.74331400      1.08211500
H        1.95865700      1.98383600      0.09041100
H        1.85887400     -2.31379000     -0.10770900
H       -0.59652200     -2.28947700     -0.13556100

B 2 1 F

--Link1--
%chk=mol_004_Z_scan_pt6.chk
%nprocshared=8
%mem=16GB
#p wB97XD/6-311+G(d,p) Geom=Check Guess=Read Stable=Opt Pop=NBO7Read Density=Current scrf=(smd,solvent=water)

mol_004_Z SP+NBO7/CMO after constrained opt at R0+0.30A  [oxime: C3=N2-O1]

1 1

$NBO CMO PRINT=2 E2PERT=0.05 BNDIDX $END


