%chk=mol_004_Z_opt.chk
%nprocshared=8
%mem=16GB
#p wB97XD/6-311+G(d,p) opt scrf=(smd,solvent=water)

mol_004_Z opt  [oxime: C3=N2-O1]

1 1
O       -2.09330000      2.30360000      0.72110000
N       -2.42540000      0.62920000      0.73780000
C       -1.36120000      0.00170000      0.43980000
C       -1.59770000     -1.51090000      0.44550000
C       -0.33210000     -2.09860000     -0.20790000
C        0.61550000     -0.94950000     -0.29430000
C        1.93610000     -0.97800000     -0.68960000
C        2.64290000      0.21800000     -0.71120000
Cl       4.29950000      0.20800000     -1.20090000
C        2.05800000      1.43360000     -0.34530000
C        0.74120000      1.46330000      0.04790000
C        0.01150000      0.26920000      0.07080000
H       -2.61200000      2.58410000      1.49910000
H       -2.57630000      2.59670000     -0.07530000
H       -1.70440000     -1.83350000      1.47770000
H       -2.51540000     -1.77570000     -0.06840000
H        0.08240000     -2.92780000      0.36000000
H       -0.55300000     -2.48440000     -1.20210000
H        2.42290000     -1.89810000     -0.97610000
H        2.64370000      2.33880000     -0.36910000
H        0.31740000      2.41030000      0.34000000


