28
mol_021_E_opt
C        4.347800     -1.152600      0.455900
O        3.792400      0.036900     -0.115100
C        2.464900      0.166900     -0.169200
C        1.993100      1.363000     -0.741100
C        0.645300      1.582600     -0.838400
C       -0.280500      0.629900     -0.365900
C        0.194300     -0.571500      0.201100
C        1.560100     -0.788900      0.295500
C       -0.772600     -1.599900      0.698300
C       -2.012800     -0.940200      1.267300
C       -2.686800     -0.070900      0.218500
C       -1.727600      0.857800     -0.472500
N       -2.013100      1.867600     -1.200500
O       -3.750200      1.920700     -1.305100
H        5.422000     -1.030000      0.393600
H        4.040800     -2.028500     -0.113500
H        4.045700     -1.252000      1.497400
H        2.717100      2.083900     -1.093100
H        0.292300      2.507400     -1.280900
H        1.909400     -1.709400      0.737100
H       -0.308300     -2.237600      1.446000
H       -1.057100     -2.256800     -0.129100
H       -2.720700     -1.690400      1.609800
H       -1.740500     -0.333500      2.131500
H       -3.500500      0.507400      0.647900
H       -3.127900     -0.683100     -0.568400
H       -3.831000      2.009500     -2.273800
H       -3.895500      2.811200     -0.933300
