28
mol_021_Z_opt
C        4.224100     -0.931900     -0.046500
O        3.563300      0.337800     -0.090900
C        2.230600      0.371000     -0.124700
C        1.660800      1.652200     -0.195700
C        0.302100      1.786800     -0.211800
C       -0.540100      0.655300     -0.160000
C        0.035800     -0.636200     -0.154700
C        1.412500     -0.759000     -0.106000
C       -0.802700     -1.882000     -0.259800
C       -2.267100     -1.683200      0.087400
C       -2.803300     -0.438600     -0.599800
C       -1.984900      0.753600     -0.127000
N       -2.827300      1.619500      0.276600
O       -2.005400      2.933100      1.013800
H        3.986900     -1.516900     -0.933900
H        5.284100     -0.709300     -0.025100
H        3.942400     -1.477400      0.852800
H        2.317700      2.507900     -0.247500
H       -0.109300      2.780100     -0.310400
H        1.842400     -1.748500     -0.074300
H       -0.369100     -2.668900      0.355400
H       -0.728100     -2.234300     -1.291200
H       -2.843300     -2.551700     -0.225400
H       -2.400200     -1.588100      1.166000
H       -2.677400     -0.507900     -1.680300
H       -3.860400     -0.282200     -0.406500
H       -1.853400      2.634700      1.931000
H       -2.731000      3.584100      1.028700
