24
mol_029_Z_opt
O        1.298900     -2.637300      1.130900
N       -0.176300     -2.503000      0.518400
C       -0.404900     -1.315900      0.104200
C       -1.898400     -1.205900     -0.188200
C       -2.366400      0.238000     -0.333000
C       -1.577400      1.168300      0.579300
C       -0.130500      1.117200      0.202100
C        0.654500      2.253400      0.077200
C        1.964000      2.167800     -0.373800
C        2.522800      0.945000     -0.726800
C        1.738700     -0.170600     -0.587800
F        2.262200     -1.385200     -0.984400
C        0.433400     -0.143400     -0.093000
H        1.910100     -2.498000      0.359900
H        1.298600     -3.581600      1.383400
H       -2.420300     -1.728600      0.613200
H       -2.096500     -1.773100     -1.098800
H       -3.428000      0.287800     -0.104100
H       -2.244800      0.566200     -1.365800
H       -1.958200      2.184200      0.506100
H       -1.707500      0.865200      1.621900
H        0.230200      3.217700      0.320900
H        2.562700      3.062000     -0.463600
H        3.533300      0.869700     -1.097800
