%chk=mol_031_E_scan_pt1.chk
%nprocshared=8
%mem=16GB
#p wB97XD/6-311+G(d,p) opt=(ModRedundant) SCF=(Tight,XQC) NoSymm scrf=(smd,solvent=water)

mol_031_E scan pt1 (R0+0.05A) rigid O-N displacement then constrained opt  [oxime: C3=N2-O1]

1 1
O       -3.70307041     -0.65777811     -0.35193064
N       -2.23735800     -1.16258600     -0.30019800
C       -1.47547700     -0.18154900      0.01818400
C       -1.92040100      1.23453100      0.23968700
C       -0.77588000      2.16532400      0.61922400
C        0.43987400      1.92231300     -0.26904400
C        0.88754200      0.49490900     -0.11931000
C        2.22463900      0.12553100     -0.14142900
F        3.15047100      1.08939500     -0.35356200
C        2.66520400     -1.16768400      0.05054700
C        1.72294200     -2.16501400      0.28022900
C        0.37370700     -1.85475300      0.29454300
C       -0.04224500     -0.53619700      0.08311800
H       -4.11122741     -0.70004711      0.53550536
H       -4.17880641     -1.28963611     -0.92050264
H       -2.38818800      1.56259900     -0.69544000
H       -2.70565100      1.23697400      1.00039600
H       -0.49597200      2.00634100      1.66464200
H       -1.11562000      3.19753400      0.52288100
H        0.18492500      2.11883800     -1.31706100
H        1.25325500      2.59767600     -0.00409300
H        3.72679900     -1.38269600      0.03090600
H        2.04887400     -3.18379900      0.44953100
H       -0.35847100     -2.62974100      0.48095100

B 2 1 F

--Link1--
%chk=mol_031_E_scan_pt1.chk
%nprocshared=8
%mem=16GB
#p wB97XD/6-311+G(d,p) Geom=Check Guess=Read Stable=Opt Pop=NBO7Read Density=Current scrf=(smd,solvent=water)

mol_031_E SP+NBO7/CMO after constrained opt at R0+0.05A  [oxime: C3=N2-O1]

1 1

$NBO CMO PRINT=2 E2PERT=0.05 BNDIDX $END

--Link1--
%chk=mol_031_E_scan_pt2.chk
%nprocshared=8
%mem=16GB
#p wB97XD/6-311+G(d,p) opt=(ModRedundant) SCF=(Tight,XQC) NoSymm scrf=(smd,solvent=water)

mol_031_E scan pt2 (R0+0.10A) rigid O-N displacement then constrained opt  [oxime: C3=N2-O1]

1 1
O       -3.75031882     -0.64150523     -0.35359829
N       -2.23735800     -1.16258600     -0.30019800
C       -1.47547700     -0.18154900      0.01818400
C       -1.92040100      1.23453100      0.23968700
C       -0.77588000      2.16532400      0.61922400
C        0.43987400      1.92231300     -0.26904400
C        0.88754200      0.49490900     -0.11931000
C        2.22463900      0.12553100     -0.14142900
F        3.15047100      1.08939500     -0.35356200
C        2.66520400     -1.16768400      0.05054700
C        1.72294200     -2.16501400      0.28022900
C        0.37370700     -1.85475300      0.29454300
C       -0.04224500     -0.53619700      0.08311800
H       -4.15847582     -0.68377423      0.53383771
H       -4.22605482     -1.27336323     -0.92217029
H       -2.38818800      1.56259900     -0.69544000
H       -2.70565100      1.23697400      1.00039600
H       -0.49597200      2.00634100      1.66464200
H       -1.11562000      3.19753400      0.52288100
H        0.18492500      2.11883800     -1.31706100
H        1.25325500      2.59767600     -0.00409300
H        3.72679900     -1.38269600      0.03090600
H        2.04887400     -3.18379900      0.44953100
H       -0.35847100     -2.62974100      0.48095100

B 2 1 F

--Link1--
%chk=mol_031_E_scan_pt2.chk
%nprocshared=8
%mem=16GB
#p wB97XD/6-311+G(d,p) Geom=Check Guess=Read Stable=Opt Pop=NBO7Read Density=Current scrf=(smd,solvent=water)

mol_031_E SP+NBO7/CMO after constrained opt at R0+0.10A  [oxime: C3=N2-O1]

1 1

$NBO CMO PRINT=2 E2PERT=0.05 BNDIDX $END

--Link1--
%chk=mol_031_E_scan_pt3.chk
%nprocshared=8
%mem=16GB
#p wB97XD/6-311+G(d,p) opt=(ModRedundant) SCF=(Tight,XQC) NoSymm scrf=(smd,solvent=water)

mol_031_E scan pt3 (R0+0.15A) rigid O-N displacement then constrained opt  [oxime: C3=N2-O1]

1 1
O       -3.79756723     -0.62523234     -0.35526593
N       -2.23735800     -1.16258600     -0.30019800
C       -1.47547700     -0.18154900      0.01818400
C       -1.92040100      1.23453100      0.23968700
C       -0.77588000      2.16532400      0.61922400
C        0.43987400      1.92231300     -0.26904400
C        0.88754200      0.49490900     -0.11931000
C        2.22463900      0.12553100     -0.14142900
F        3.15047100      1.08939500     -0.35356200
C        2.66520400     -1.16768400      0.05054700
C        1.72294200     -2.16501400      0.28022900
C        0.37370700     -1.85475300      0.29454300
C       -0.04224500     -0.53619700      0.08311800
H       -4.20572423     -0.66750134      0.53217007
H       -4.27330323     -1.25709034     -0.92383793
H       -2.38818800      1.56259900     -0.69544000
H       -2.70565100      1.23697400      1.00039600
H       -0.49597200      2.00634100      1.66464200
H       -1.11562000      3.19753400      0.52288100
H        0.18492500      2.11883800     -1.31706100
H        1.25325500      2.59767600     -0.00409300
H        3.72679900     -1.38269600      0.03090600
H        2.04887400     -3.18379900      0.44953100
H       -0.35847100     -2.62974100      0.48095100

B 2 1 F

--Link1--
%chk=mol_031_E_scan_pt3.chk
%nprocshared=8
%mem=16GB
#p wB97XD/6-311+G(d,p) Geom=Check Guess=Read Stable=Opt Pop=NBO7Read Density=Current scrf=(smd,solvent=water)

mol_031_E SP+NBO7/CMO after constrained opt at R0+0.15A  [oxime: C3=N2-O1]

1 1

$NBO CMO PRINT=2 E2PERT=0.05 BNDIDX $END

--Link1--
%chk=mol_031_E_scan_pt4.chk
%nprocshared=8
%mem=16GB
#p wB97XD/6-311+G(d,p) opt=(ModRedundant) SCF=(Tight,XQC) NoSymm scrf=(smd,solvent=water)

mol_031_E scan pt4 (R0+0.20A) rigid O-N displacement then constrained opt  [oxime: C3=N2-O1]

1 1
O       -3.84481564     -0.60895946     -0.35693357
N       -2.23735800     -1.16258600     -0.30019800
C       -1.47547700     -0.18154900      0.01818400
C       -1.92040100      1.23453100      0.23968700
C       -0.77588000      2.16532400      0.61922400
C        0.43987400      1.92231300     -0.26904400
C        0.88754200      0.49490900     -0.11931000
C        2.22463900      0.12553100     -0.14142900
F        3.15047100      1.08939500     -0.35356200
C        2.66520400     -1.16768400      0.05054700
C        1.72294200     -2.16501400      0.28022900
C        0.37370700     -1.85475300      0.29454300
C       -0.04224500     -0.53619700      0.08311800
H       -4.25297264     -0.65122846      0.53050243
H       -4.32055164     -1.24081746     -0.92550557
H       -2.38818800      1.56259900     -0.69544000
H       -2.70565100      1.23697400      1.00039600
H       -0.49597200      2.00634100      1.66464200
H       -1.11562000      3.19753400      0.52288100
H        0.18492500      2.11883800     -1.31706100
H        1.25325500      2.59767600     -0.00409300
H        3.72679900     -1.38269600      0.03090600
H        2.04887400     -3.18379900      0.44953100
H       -0.35847100     -2.62974100      0.48095100

B 2 1 F

--Link1--
%chk=mol_031_E_scan_pt4.chk
%nprocshared=8
%mem=16GB
#p wB97XD/6-311+G(d,p) Geom=Check Guess=Read Stable=Opt Pop=NBO7Read Density=Current scrf=(smd,solvent=water)

mol_031_E SP+NBO7/CMO after constrained opt at R0+0.20A  [oxime: C3=N2-O1]

1 1

$NBO CMO PRINT=2 E2PERT=0.05 BNDIDX $END

--Link1--
%chk=mol_031_E_scan_pt5.chk
%nprocshared=8
%mem=16GB
#p wB97XD/6-311+G(d,p) opt=(ModRedundant) SCF=(Tight,XQC) NoSymm scrf=(smd,solvent=water)

mol_031_E scan pt5 (R0+0.25A) rigid O-N displacement then constrained opt  [oxime: C3=N2-O1]

1 1
O       -3.89206405     -0.59268657     -0.35860122
N       -2.23735800     -1.16258600     -0.30019800
C       -1.47547700     -0.18154900      0.01818400
C       -1.92040100      1.23453100      0.23968700
C       -0.77588000      2.16532400      0.61922400
C        0.43987400      1.92231300     -0.26904400
C        0.88754200      0.49490900     -0.11931000
C        2.22463900      0.12553100     -0.14142900
F        3.15047100      1.08939500     -0.35356200
C        2.66520400     -1.16768400      0.05054700
C        1.72294200     -2.16501400      0.28022900
C        0.37370700     -1.85475300      0.29454300
C       -0.04224500     -0.53619700      0.08311800
H       -4.30022105     -0.63495557      0.52883478
H       -4.36780005     -1.22454457     -0.92717322
H       -2.38818800      1.56259900     -0.69544000
H       -2.70565100      1.23697400      1.00039600
H       -0.49597200      2.00634100      1.66464200
H       -1.11562000      3.19753400      0.52288100
H        0.18492500      2.11883800     -1.31706100
H        1.25325500      2.59767600     -0.00409300
H        3.72679900     -1.38269600      0.03090600
H        2.04887400     -3.18379900      0.44953100
H       -0.35847100     -2.62974100      0.48095100

B 2 1 F

--Link1--
%chk=mol_031_E_scan_pt5.chk
%nprocshared=8
%mem=16GB
#p wB97XD/6-311+G(d,p) Geom=Check Guess=Read Stable=Opt Pop=NBO7Read Density=Current scrf=(smd,solvent=water)

mol_031_E SP+NBO7/CMO after constrained opt at R0+0.25A  [oxime: C3=N2-O1]

1 1

$NBO CMO PRINT=2 E2PERT=0.05 BNDIDX $END

--Link1--
%chk=mol_031_E_scan_pt6.chk
%nprocshared=8
%mem=16GB
#p wB97XD/6-311+G(d,p) opt=(ModRedundant) SCF=(Tight,XQC) NoSymm scrf=(smd,solvent=water)

mol_031_E scan pt6 (R0+0.30A) rigid O-N displacement then constrained opt  [oxime: C3=N2-O1]

1 1
O       -3.93931246     -0.57641369     -0.36026886
N       -2.23735800     -1.16258600     -0.30019800
C       -1.47547700     -0.18154900      0.01818400
C       -1.92040100      1.23453100      0.23968700
C       -0.77588000      2.16532400      0.61922400
C        0.43987400      1.92231300     -0.26904400
C        0.88754200      0.49490900     -0.11931000
C        2.22463900      0.12553100     -0.14142900
F        3.15047100      1.08939500     -0.35356200
C        2.66520400     -1.16768400      0.05054700
C        1.72294200     -2.16501400      0.28022900
C        0.37370700     -1.85475300      0.29454300
C       -0.04224500     -0.53619700      0.08311800
H       -4.34746946     -0.61868269      0.52716714
H       -4.41504846     -1.20827169     -0.92884086
H       -2.38818800      1.56259900     -0.69544000
H       -2.70565100      1.23697400      1.00039600
H       -0.49597200      2.00634100      1.66464200
H       -1.11562000      3.19753400      0.52288100
H        0.18492500      2.11883800     -1.31706100
H        1.25325500      2.59767600     -0.00409300
H        3.72679900     -1.38269600      0.03090600
H        2.04887400     -3.18379900      0.44953100
H       -0.35847100     -2.62974100      0.48095100

B 2 1 F

--Link1--
%chk=mol_031_E_scan_pt6.chk
%nprocshared=8
%mem=16GB
#p wB97XD/6-311+G(d,p) Geom=Check Guess=Read Stable=Opt Pop=NBO7Read Density=Current scrf=(smd,solvent=water)

mol_031_E SP+NBO7/CMO after constrained opt at R0+0.30A  [oxime: C3=N2-O1]

1 1

$NBO CMO PRINT=2 E2PERT=0.05 BNDIDX $END


