%chk=mol_031_E_opt.chk
%nprocshared=8
%mem=16GB
#p wB97XD/6-311+G(d,p) opt scrf=(smd,solvent=water)

mol_031_E opt  [oxime: C3=N2-O1]

1 1
O       -3.05100000      1.94670000      0.34740000
N       -1.35920000      1.90420000      0.24550000
C       -1.01680000      0.68840000      0.06700000
C       -1.92210000     -0.49820000     -0.08210000
C       -1.21420000     -1.70320000     -0.67060000
C        0.07030000     -1.98690000      0.08020000
C        0.96680000     -0.78910000      0.07470000
C        2.35170000     -0.92790000      0.09460000
F        2.86500000     -2.16950000      0.13100000
C        3.21850000      0.15060000      0.07240000
C        2.68920000      1.43390000      0.03530000
C        1.32330000      1.62900000      0.02720000
C        0.45700000      0.52330000      0.04840000
H       -3.25690000      2.54110000     -0.40010000
H       -3.15400000      2.47470000      1.16290000
H       -2.28650000     -0.71400000      0.92410000
H       -2.78980000     -0.21550000     -0.67190000
H       -0.99590000     -1.52410000     -1.72360000
H       -1.88160000     -2.55860000     -0.62160000
H       -0.15770000     -2.26000000      1.11530000
H        0.57470000     -2.84580000     -0.35320000
H        4.28580000     -0.01600000      0.08300000
H        3.35770000      2.28190000      0.01490000
H        0.92550000      2.63460000     -0.00070000


