%chk=mol_016_E_scan_pt1.chk
%nprocshared=8
%mem=16GB
#p wB97XD/6-311+G(d,p) opt=(ModRedundant) SCF=(Tight,XQC) NoSymm scrf=(smd,solvent=water)

mol_016_E scan pt1 (R0+0.05A) rigid O-N displacement then constrained opt  [oxime: C11=N12-O13]

1 1
C        4.02393200     -0.80282500     -0.00452700
O        2.63129700     -1.10387800      0.00283100
C        1.75674000     -0.06642600      0.00145200
C        2.11322100      1.27805800     -0.00525400
C        1.12914700      2.27545600     -0.00666100
C       -0.21619500      1.95990100     -0.00149500
C       -0.55513400      0.60433800      0.00497500
C        0.40037000     -0.40474800      0.00615500
C       -0.20510200     -1.77620900      0.01048100
C       -1.72359200     -1.51900100     -0.00103700
C       -1.87442900     -0.02664200      0.00824100
N       -2.93039900      0.69766300      0.01697600
O       -4.14974994     -0.27104159      0.00990807
H        4.53511600     -1.76352400     -0.00186400
H        4.30510500     -0.23500900      0.88678300
H        4.29751200     -0.24398100     -0.90385500
H        3.15494800      1.57161500     -0.01051100
H        1.44121200      3.31317000     -0.01303700
H       -0.97473100      2.73252600     -0.00419200
H        0.11357300     -2.35019600     -0.86233600
H        0.10112100     -2.33743400      0.89620100
H       -2.21283000     -1.92629900     -0.88829800
H       -2.23236300     -1.93820900      0.86918600
H       -4.54368294     -0.25812859     -0.88348993
H       -4.80980394      0.10875941      0.61842407

B 12 13 F

--Link1--
%chk=mol_016_E_scan_pt1.chk
%nprocshared=8
%mem=16GB
#p wB97XD/6-311+G(d,p) Geom=Check Guess=Read Stable=Opt Pop=NBO7Read Density=Current scrf=(smd,solvent=water)

mol_016_E SP+NBO7/CMO after constrained opt at R0+0.05A  [oxime: C11=N12-O13]

1 1

$NBO CMO PRINT=2 E2PERT=0.05 BNDIDX $END

--Link1--
%chk=mol_016_E_scan_pt2.chk
%nprocshared=8
%mem=16GB
#p wB97XD/6-311+G(d,p) opt=(ModRedundant) SCF=(Tight,XQC) NoSymm scrf=(smd,solvent=water)

mol_016_E scan pt2 (R0+0.10A) rigid O-N displacement then constrained opt  [oxime: C11=N12-O13]

1 1
C        4.02393200     -0.80282500     -0.00452700
O        2.63129700     -1.10387800      0.00283100
C        1.75674000     -0.06642600      0.00145200
C        2.11322100      1.27805800     -0.00525400
C        1.12914700      2.27545600     -0.00666100
C       -0.21619500      1.95990100     -0.00149500
C       -0.55513400      0.60433800      0.00497500
C        0.40037000     -0.40474800      0.00615500
C       -0.20510200     -1.77620900      0.01048100
C       -1.72359200     -1.51900100     -0.00103700
C       -1.87442900     -0.02664200      0.00824100
N       -2.93039900      0.69766300      0.01697600
O       -4.18889888     -0.30214319      0.00968115
H        4.53511600     -1.76352400     -0.00186400
H        4.30510500     -0.23500900      0.88678300
H        4.29751200     -0.24398100     -0.90385500
H        3.15494800      1.57161500     -0.01051100
H        1.44121200      3.31317000     -0.01303700
H       -0.97473100      2.73252600     -0.00419200
H        0.11357300     -2.35019600     -0.86233600
H        0.10112100     -2.33743400      0.89620100
H       -2.21283000     -1.92629900     -0.88829800
H       -2.23236300     -1.93820900      0.86918600
H       -4.58283188     -0.28923019     -0.88371685
H       -4.84895288      0.07765781      0.61819715

B 12 13 F

--Link1--
%chk=mol_016_E_scan_pt2.chk
%nprocshared=8
%mem=16GB
#p wB97XD/6-311+G(d,p) Geom=Check Guess=Read Stable=Opt Pop=NBO7Read Density=Current scrf=(smd,solvent=water)

mol_016_E SP+NBO7/CMO after constrained opt at R0+0.10A  [oxime: C11=N12-O13]

1 1

$NBO CMO PRINT=2 E2PERT=0.05 BNDIDX $END

--Link1--
%chk=mol_016_E_scan_pt3.chk
%nprocshared=8
%mem=16GB
#p wB97XD/6-311+G(d,p) opt=(ModRedundant) SCF=(Tight,XQC) NoSymm scrf=(smd,solvent=water)

mol_016_E scan pt3 (R0+0.15A) rigid O-N displacement then constrained opt  [oxime: C11=N12-O13]

1 1
C        4.02393200     -0.80282500     -0.00452700
O        2.63129700     -1.10387800      0.00283100
C        1.75674000     -0.06642600      0.00145200
C        2.11322100      1.27805800     -0.00525400
C        1.12914700      2.27545600     -0.00666100
C       -0.21619500      1.95990100     -0.00149500
C       -0.55513400      0.60433800      0.00497500
C        0.40037000     -0.40474800      0.00615500
C       -0.20510200     -1.77620900      0.01048100
C       -1.72359200     -1.51900100     -0.00103700
C       -1.87442900     -0.02664200      0.00824100
N       -2.93039900      0.69766300      0.01697600
O       -4.22804782     -0.33324478      0.00945422
H        4.53511600     -1.76352400     -0.00186400
H        4.30510500     -0.23500900      0.88678300
H        4.29751200     -0.24398100     -0.90385500
H        3.15494800      1.57161500     -0.01051100
H        1.44121200      3.31317000     -0.01303700
H       -0.97473100      2.73252600     -0.00419200
H        0.11357300     -2.35019600     -0.86233600
H        0.10112100     -2.33743400      0.89620100
H       -2.21283000     -1.92629900     -0.88829800
H       -2.23236300     -1.93820900      0.86918600
H       -4.62198082     -0.32033178     -0.88394378
H       -4.88810182      0.04655622      0.61797022

B 12 13 F

--Link1--
%chk=mol_016_E_scan_pt3.chk
%nprocshared=8
%mem=16GB
#p wB97XD/6-311+G(d,p) Geom=Check Guess=Read Stable=Opt Pop=NBO7Read Density=Current scrf=(smd,solvent=water)

mol_016_E SP+NBO7/CMO after constrained opt at R0+0.15A  [oxime: C11=N12-O13]

1 1

$NBO CMO PRINT=2 E2PERT=0.05 BNDIDX $END

--Link1--
%chk=mol_016_E_scan_pt4.chk
%nprocshared=8
%mem=16GB
#p wB97XD/6-311+G(d,p) opt=(ModRedundant) SCF=(Tight,XQC) NoSymm scrf=(smd,solvent=water)

mol_016_E scan pt4 (R0+0.20A) rigid O-N displacement then constrained opt  [oxime: C11=N12-O13]

1 1
C        4.02393200     -0.80282500     -0.00452700
O        2.63129700     -1.10387800      0.00283100
C        1.75674000     -0.06642600      0.00145200
C        2.11322100      1.27805800     -0.00525400
C        1.12914700      2.27545600     -0.00666100
C       -0.21619500      1.95990100     -0.00149500
C       -0.55513400      0.60433800      0.00497500
C        0.40037000     -0.40474800      0.00615500
C       -0.20510200     -1.77620900      0.01048100
C       -1.72359200     -1.51900100     -0.00103700
C       -1.87442900     -0.02664200      0.00824100
N       -2.93039900      0.69766300      0.01697600
O       -4.26719676     -0.36434637      0.00922730
H        4.53511600     -1.76352400     -0.00186400
H        4.30510500     -0.23500900      0.88678300
H        4.29751200     -0.24398100     -0.90385500
H        3.15494800      1.57161500     -0.01051100
H        1.44121200      3.31317000     -0.01303700
H       -0.97473100      2.73252600     -0.00419200
H        0.11357300     -2.35019600     -0.86233600
H        0.10112100     -2.33743400      0.89620100
H       -2.21283000     -1.92629900     -0.88829800
H       -2.23236300     -1.93820900      0.86918600
H       -4.66112976     -0.35143337     -0.88417070
H       -4.92725076      0.01545463      0.61774330

B 12 13 F

--Link1--
%chk=mol_016_E_scan_pt4.chk
%nprocshared=8
%mem=16GB
#p wB97XD/6-311+G(d,p) Geom=Check Guess=Read Stable=Opt Pop=NBO7Read Density=Current scrf=(smd,solvent=water)

mol_016_E SP+NBO7/CMO after constrained opt at R0+0.20A  [oxime: C11=N12-O13]

1 1

$NBO CMO PRINT=2 E2PERT=0.05 BNDIDX $END

--Link1--
%chk=mol_016_E_scan_pt5.chk
%nprocshared=8
%mem=16GB
#p wB97XD/6-311+G(d,p) opt=(ModRedundant) SCF=(Tight,XQC) NoSymm scrf=(smd,solvent=water)

mol_016_E scan pt5 (R0+0.25A) rigid O-N displacement then constrained opt  [oxime: C11=N12-O13]

1 1
C        4.02393200     -0.80282500     -0.00452700
O        2.63129700     -1.10387800      0.00283100
C        1.75674000     -0.06642600      0.00145200
C        2.11322100      1.27805800     -0.00525400
C        1.12914700      2.27545600     -0.00666100
C       -0.21619500      1.95990100     -0.00149500
C       -0.55513400      0.60433800      0.00497500
C        0.40037000     -0.40474800      0.00615500
C       -0.20510200     -1.77620900      0.01048100
C       -1.72359200     -1.51900100     -0.00103700
C       -1.87442900     -0.02664200      0.00824100
N       -2.93039900      0.69766300      0.01697600
O       -4.30634569     -0.39544797      0.00900037
H        4.53511600     -1.76352400     -0.00186400
H        4.30510500     -0.23500900      0.88678300
H        4.29751200     -0.24398100     -0.90385500
H        3.15494800      1.57161500     -0.01051100
H        1.44121200      3.31317000     -0.01303700
H       -0.97473100      2.73252600     -0.00419200
H        0.11357300     -2.35019600     -0.86233600
H        0.10112100     -2.33743400      0.89620100
H       -2.21283000     -1.92629900     -0.88829800
H       -2.23236300     -1.93820900      0.86918600
H       -4.70027869     -0.38253497     -0.88439763
H       -4.96639969     -0.01564697      0.61751637

B 12 13 F

--Link1--
%chk=mol_016_E_scan_pt5.chk
%nprocshared=8
%mem=16GB
#p wB97XD/6-311+G(d,p) Geom=Check Guess=Read Stable=Opt Pop=NBO7Read Density=Current scrf=(smd,solvent=water)

mol_016_E SP+NBO7/CMO after constrained opt at R0+0.25A  [oxime: C11=N12-O13]

1 1

$NBO CMO PRINT=2 E2PERT=0.05 BNDIDX $END

--Link1--
%chk=mol_016_E_scan_pt6.chk
%nprocshared=8
%mem=16GB
#p wB97XD/6-311+G(d,p) opt=(ModRedundant) SCF=(Tight,XQC) NoSymm scrf=(smd,solvent=water)

mol_016_E scan pt6 (R0+0.30A) rigid O-N displacement then constrained opt  [oxime: C11=N12-O13]

1 1
C        4.02393200     -0.80282500     -0.00452700
O        2.63129700     -1.10387800      0.00283100
C        1.75674000     -0.06642600      0.00145200
C        2.11322100      1.27805800     -0.00525400
C        1.12914700      2.27545600     -0.00666100
C       -0.21619500      1.95990100     -0.00149500
C       -0.55513400      0.60433800      0.00497500
C        0.40037000     -0.40474800      0.00615500
C       -0.20510200     -1.77620900      0.01048100
C       -1.72359200     -1.51900100     -0.00103700
C       -1.87442900     -0.02664200      0.00824100
N       -2.93039900      0.69766300      0.01697600
O       -4.34549463     -0.42654956      0.00877345
H        4.53511600     -1.76352400     -0.00186400
H        4.30510500     -0.23500900      0.88678300
H        4.29751200     -0.24398100     -0.90385500
H        3.15494800      1.57161500     -0.01051100
H        1.44121200      3.31317000     -0.01303700
H       -0.97473100      2.73252600     -0.00419200
H        0.11357300     -2.35019600     -0.86233600
H        0.10112100     -2.33743400      0.89620100
H       -2.21283000     -1.92629900     -0.88829800
H       -2.23236300     -1.93820900      0.86918600
H       -4.73942763     -0.41363656     -0.88462455
H       -5.00554863     -0.04674856      0.61728945

B 12 13 F

--Link1--
%chk=mol_016_E_scan_pt6.chk
%nprocshared=8
%mem=16GB
#p wB97XD/6-311+G(d,p) Geom=Check Guess=Read Stable=Opt Pop=NBO7Read Density=Current scrf=(smd,solvent=water)

mol_016_E SP+NBO7/CMO after constrained opt at R0+0.30A  [oxime: C11=N12-O13]

1 1

$NBO CMO PRINT=2 E2PERT=0.05 BNDIDX $END


