%chk=mol_016_E_opt.chk
%nprocshared=8
%mem=16GB
#p wB97XD/6-311+G(d,p) opt=(CalcFC,MaxCycles=300) scrf=(smd,solvent=water)

mol_016_E opt  [oxime: C11=N12-O13]

1 1
C        3.82310000     -1.00220000     -0.07280000
O        2.40320000     -1.17240000     -0.11050000
C        1.61710000     -0.08350000     -0.07560000
C        2.06330000      1.24150000     -0.01640000
C        1.15620000      2.29940000      0.01640000
C       -0.21170000      2.08570000     -0.00770000
C       -0.63640000      0.75870000     -0.06700000
C        0.24080000     -0.32220000     -0.10190000
C       -0.45650000     -1.64290000     -0.16180000
C       -1.95000000     -1.29040000     -0.17070000
C       -2.00050000      0.21220000     -0.10320000
N       -2.96240000      1.03490000     -0.07440000
O       -4.39810000      0.04510000     -0.12910000
H        4.24040000     -2.00240000     -0.10800000
H        4.12560000     -0.50880000      0.85070000
H        4.16440000     -0.43020000     -0.93530000
H        3.11870000      1.46890000      0.00470000
H        1.54500000      3.30680000      0.06190000
H       -0.89520000      2.92130000      0.01920000
H       -0.16390000     -2.19800000     -1.04960000
H       -0.19050000     -2.26070000      0.69240000
H       -2.46500000     -1.62300000     -1.06850000
H       -2.49530000     -1.70670000      0.67240000
H       -4.83150000      0.47070000     -0.89310000
H       -4.84070000      0.39790000      0.66610000


