21
mol_003_Z_opt
O       -2.100400      2.330600     -0.546300
N       -2.425200      0.664200     -0.623500
C       -1.352600      0.022500     -0.387200
C       -1.594800     -1.486900     -0.449200
C       -0.311700     -2.105900      0.135700
C        0.644100     -0.965100      0.239100
C        1.978200     -1.010700      0.587500
C        2.671900      0.186400      0.631100
F        3.959700      0.156400      0.966100
C        2.092000      1.420400      0.340600
C        0.762200      1.464400     -0.005900
C        0.031600      0.270400     -0.053500
H       -2.565800      2.591800      0.271600
H       -2.633700      2.644100     -1.301700
H       -1.737000     -1.765600     -1.489900
H       -2.496500     -1.772100      0.082200
H        0.079100     -2.912700     -0.479800
H       -0.501600     -2.534200      1.119200
H        2.486300     -1.934700      0.820700
H        2.690600      2.316600      0.386800
H        0.323600      2.420000     -0.243700
