%chk=mol_034_E_scan_pt1.chk
%nprocshared=8
%mem=16GB
#p wB97XD/6-311+G(d,p) opt=(ModRedundant) SCF=(Tight,XQC) NoSymm scrf=(smd,solvent=water)

mol_034_E scan pt1 (R0+0.05A) rigid O-N displacement then constrained opt  [oxime: C11=N12-O13]

1 1
C       -3.34033600      1.06777100     -0.35993900
C       -2.25138300      0.05451500     -0.12912400
C       -2.57744900     -1.28669800      0.05176700
C       -1.59911300     -2.25287100      0.27286700
C       -0.26745800     -1.88759400      0.28571000
C        0.08453500     -0.54563800      0.09016800
C       -0.90054000      0.43967400     -0.08780700
C       -0.49332800      1.88499600     -0.21461100
C        0.73946900      2.16481000      0.63573200
C        1.90395400      1.28742000      0.20363500
C        1.50440000     -0.14554500      0.01160000
N        2.30307200     -1.10496300     -0.29063000
O        3.75323596     -0.53411235     -0.33292235
H       -4.30763400      0.57321700     -0.46080600
H       -3.40776700      1.77593100      0.47163500
H       -3.15719100      1.64921000     -1.26754900
H       -3.62181300     -1.58086600      0.02953000
H       -1.88156000     -3.28691100      0.43180100
H        0.50058000     -2.63148500      0.45567800
H       -0.28345500      2.11897800     -1.26612500
H       -1.31376400      2.53303400      0.09358200
H        0.50266900      1.97736100      1.68754300
H        1.03416600      3.21188900      0.54808700
H        2.30578800      1.63060000     -0.75648800
H        2.72671100      1.32920000      0.92004600
H        4.14851796     -0.85766835     -1.16321435
H        4.25592796     -0.93681335      0.40053165

B 12 13 F

--Link1--
%chk=mol_034_E_scan_pt1.chk
%nprocshared=8
%mem=16GB
#p wB97XD/6-311+G(d,p) Geom=Check Guess=Read Stable=Opt Pop=NBO7Read Density=Current scrf=(smd,solvent=water)

mol_034_E SP+NBO7/CMO after constrained opt at R0+0.05A  [oxime: C11=N12-O13]

1 1

$NBO CMO PRINT=2 E2PERT=0.05 BNDIDX $END

--Link1--
%chk=mol_034_E_scan_pt2.chk
%nprocshared=8
%mem=16GB
#p wB97XD/6-311+G(d,p) opt=(ModRedundant) SCF=(Tight,XQC) NoSymm scrf=(smd,solvent=water)

mol_034_E scan pt2 (R0+0.10A) rigid O-N displacement then constrained opt  [oxime: C11=N12-O13]

1 1
C       -3.34033600      1.06777100     -0.35993900
C       -2.25138300      0.05451500     -0.12912400
C       -2.57744900     -1.28669800      0.05176700
C       -1.59911300     -2.25287100      0.27286700
C       -0.26745800     -1.88759400      0.28571000
C        0.08453500     -0.54563800      0.09016800
C       -0.90054000      0.43967400     -0.08780700
C       -0.49332800      1.88499600     -0.21461100
C        0.73946900      2.16481000      0.63573200
C        1.90395400      1.28742000      0.20363500
C        1.50440000     -0.14554500      0.01160000
N        2.30307200     -1.10496300     -0.29063000
O        3.79974392     -0.51580469     -0.33427870
H       -4.30763400      0.57321700     -0.46080600
H       -3.40776700      1.77593100      0.47163500
H       -3.15719100      1.64921000     -1.26754900
H       -3.62181300     -1.58086600      0.02953000
H       -1.88156000     -3.28691100      0.43180100
H        0.50058000     -2.63148500      0.45567800
H       -0.28345500      2.11897800     -1.26612500
H       -1.31376400      2.53303400      0.09358200
H        0.50266900      1.97736100      1.68754300
H        1.03416600      3.21188900      0.54808700
H        2.30578800      1.63060000     -0.75648800
H        2.72671100      1.32920000      0.92004600
H        4.19502592     -0.83936069     -1.16457070
H        4.30243592     -0.91850569      0.39917530

B 12 13 F

--Link1--
%chk=mol_034_E_scan_pt2.chk
%nprocshared=8
%mem=16GB
#p wB97XD/6-311+G(d,p) Geom=Check Guess=Read Stable=Opt Pop=NBO7Read Density=Current scrf=(smd,solvent=water)

mol_034_E SP+NBO7/CMO after constrained opt at R0+0.10A  [oxime: C11=N12-O13]

1 1

$NBO CMO PRINT=2 E2PERT=0.05 BNDIDX $END

--Link1--
%chk=mol_034_E_scan_pt3.chk
%nprocshared=8
%mem=16GB
#p wB97XD/6-311+G(d,p) opt=(ModRedundant) SCF=(Tight,XQC) NoSymm scrf=(smd,solvent=water)

mol_034_E scan pt3 (R0+0.15A) rigid O-N displacement then constrained opt  [oxime: C11=N12-O13]

1 1
C       -3.34033600      1.06777100     -0.35993900
C       -2.25138300      0.05451500     -0.12912400
C       -2.57744900     -1.28669800      0.05176700
C       -1.59911300     -2.25287100      0.27286700
C       -0.26745800     -1.88759400      0.28571000
C        0.08453500     -0.54563800      0.09016800
C       -0.90054000      0.43967400     -0.08780700
C       -0.49332800      1.88499600     -0.21461100
C        0.73946900      2.16481000      0.63573200
C        1.90395400      1.28742000      0.20363500
C        1.50440000     -0.14554500      0.01160000
N        2.30307200     -1.10496300     -0.29063000
O        3.84625187     -0.49749704     -0.33563505
H       -4.30763400      0.57321700     -0.46080600
H       -3.40776700      1.77593100      0.47163500
H       -3.15719100      1.64921000     -1.26754900
H       -3.62181300     -1.58086600      0.02953000
H       -1.88156000     -3.28691100      0.43180100
H        0.50058000     -2.63148500      0.45567800
H       -0.28345500      2.11897800     -1.26612500
H       -1.31376400      2.53303400      0.09358200
H        0.50266900      1.97736100      1.68754300
H        1.03416600      3.21188900      0.54808700
H        2.30578800      1.63060000     -0.75648800
H        2.72671100      1.32920000      0.92004600
H        4.24153387     -0.82105304     -1.16592705
H        4.34894387     -0.90019804      0.39781895

B 12 13 F

--Link1--
%chk=mol_034_E_scan_pt3.chk
%nprocshared=8
%mem=16GB
#p wB97XD/6-311+G(d,p) Geom=Check Guess=Read Stable=Opt Pop=NBO7Read Density=Current scrf=(smd,solvent=water)

mol_034_E SP+NBO7/CMO after constrained opt at R0+0.15A  [oxime: C11=N12-O13]

1 1

$NBO CMO PRINT=2 E2PERT=0.05 BNDIDX $END

--Link1--
%chk=mol_034_E_scan_pt4.chk
%nprocshared=8
%mem=16GB
#p wB97XD/6-311+G(d,p) opt=(ModRedundant) SCF=(Tight,XQC) NoSymm scrf=(smd,solvent=water)

mol_034_E scan pt4 (R0+0.20A) rigid O-N displacement then constrained opt  [oxime: C11=N12-O13]

1 1
C       -3.34033600      1.06777100     -0.35993900
C       -2.25138300      0.05451500     -0.12912400
C       -2.57744900     -1.28669800      0.05176700
C       -1.59911300     -2.25287100      0.27286700
C       -0.26745800     -1.88759400      0.28571000
C        0.08453500     -0.54563800      0.09016800
C       -0.90054000      0.43967400     -0.08780700
C       -0.49332800      1.88499600     -0.21461100
C        0.73946900      2.16481000      0.63573200
C        1.90395400      1.28742000      0.20363500
C        1.50440000     -0.14554500      0.01160000
N        2.30307200     -1.10496300     -0.29063000
O        3.89275983     -0.47918939     -0.33699140
H       -4.30763400      0.57321700     -0.46080600
H       -3.40776700      1.77593100      0.47163500
H       -3.15719100      1.64921000     -1.26754900
H       -3.62181300     -1.58086600      0.02953000
H       -1.88156000     -3.28691100      0.43180100
H        0.50058000     -2.63148500      0.45567800
H       -0.28345500      2.11897800     -1.26612500
H       -1.31376400      2.53303400      0.09358200
H        0.50266900      1.97736100      1.68754300
H        1.03416600      3.21188900      0.54808700
H        2.30578800      1.63060000     -0.75648800
H        2.72671100      1.32920000      0.92004600
H        4.28804183     -0.80274539     -1.16728340
H        4.39545183     -0.88189039      0.39646260

B 12 13 F

--Link1--
%chk=mol_034_E_scan_pt4.chk
%nprocshared=8
%mem=16GB
#p wB97XD/6-311+G(d,p) Geom=Check Guess=Read Stable=Opt Pop=NBO7Read Density=Current scrf=(smd,solvent=water)

mol_034_E SP+NBO7/CMO after constrained opt at R0+0.20A  [oxime: C11=N12-O13]

1 1

$NBO CMO PRINT=2 E2PERT=0.05 BNDIDX $END

--Link1--
%chk=mol_034_E_scan_pt5.chk
%nprocshared=8
%mem=16GB
#p wB97XD/6-311+G(d,p) opt=(ModRedundant) SCF=(Tight,XQC) NoSymm scrf=(smd,solvent=water)

mol_034_E scan pt5 (R0+0.25A) rigid O-N displacement then constrained opt  [oxime: C11=N12-O13]

1 1
C       -3.34033600      1.06777100     -0.35993900
C       -2.25138300      0.05451500     -0.12912400
C       -2.57744900     -1.28669800      0.05176700
C       -1.59911300     -2.25287100      0.27286700
C       -0.26745800     -1.88759400      0.28571000
C        0.08453500     -0.54563800      0.09016800
C       -0.90054000      0.43967400     -0.08780700
C       -0.49332800      1.88499600     -0.21461100
C        0.73946900      2.16481000      0.63573200
C        1.90395400      1.28742000      0.20363500
C        1.50440000     -0.14554500      0.01160000
N        2.30307200     -1.10496300     -0.29063000
O        3.93926779     -0.46088174     -0.33834775
H       -4.30763400      0.57321700     -0.46080600
H       -3.40776700      1.77593100      0.47163500
H       -3.15719100      1.64921000     -1.26754900
H       -3.62181300     -1.58086600      0.02953000
H       -1.88156000     -3.28691100      0.43180100
H        0.50058000     -2.63148500      0.45567800
H       -0.28345500      2.11897800     -1.26612500
H       -1.31376400      2.53303400      0.09358200
H        0.50266900      1.97736100      1.68754300
H        1.03416600      3.21188900      0.54808700
H        2.30578800      1.63060000     -0.75648800
H        2.72671100      1.32920000      0.92004600
H        4.33454979     -0.78443774     -1.16863975
H        4.44195979     -0.86358274      0.39510625

B 12 13 F

--Link1--
%chk=mol_034_E_scan_pt5.chk
%nprocshared=8
%mem=16GB
#p wB97XD/6-311+G(d,p) Geom=Check Guess=Read Stable=Opt Pop=NBO7Read Density=Current scrf=(smd,solvent=water)

mol_034_E SP+NBO7/CMO after constrained opt at R0+0.25A  [oxime: C11=N12-O13]

1 1

$NBO CMO PRINT=2 E2PERT=0.05 BNDIDX $END

--Link1--
%chk=mol_034_E_scan_pt6.chk
%nprocshared=8
%mem=16GB
#p wB97XD/6-311+G(d,p) opt=(ModRedundant) SCF=(Tight,XQC) NoSymm scrf=(smd,solvent=water)

mol_034_E scan pt6 (R0+0.30A) rigid O-N displacement then constrained opt  [oxime: C11=N12-O13]

1 1
C       -3.34033600      1.06777100     -0.35993900
C       -2.25138300      0.05451500     -0.12912400
C       -2.57744900     -1.28669800      0.05176700
C       -1.59911300     -2.25287100      0.27286700
C       -0.26745800     -1.88759400      0.28571000
C        0.08453500     -0.54563800      0.09016800
C       -0.90054000      0.43967400     -0.08780700
C       -0.49332800      1.88499600     -0.21461100
C        0.73946900      2.16481000      0.63573200
C        1.90395400      1.28742000      0.20363500
C        1.50440000     -0.14554500      0.01160000
N        2.30307200     -1.10496300     -0.29063000
O        3.98577575     -0.44257408     -0.33970410
H       -4.30763400      0.57321700     -0.46080600
H       -3.40776700      1.77593100      0.47163500
H       -3.15719100      1.64921000     -1.26754900
H       -3.62181300     -1.58086600      0.02953000
H       -1.88156000     -3.28691100      0.43180100
H        0.50058000     -2.63148500      0.45567800
H       -0.28345500      2.11897800     -1.26612500
H       -1.31376400      2.53303400      0.09358200
H        0.50266900      1.97736100      1.68754300
H        1.03416600      3.21188900      0.54808700
H        2.30578800      1.63060000     -0.75648800
H        2.72671100      1.32920000      0.92004600
H        4.38105775     -0.76613008     -1.16999610
H        4.48846775     -0.84527508      0.39374990

B 12 13 F

--Link1--
%chk=mol_034_E_scan_pt6.chk
%nprocshared=8
%mem=16GB
#p wB97XD/6-311+G(d,p) Geom=Check Guess=Read Stable=Opt Pop=NBO7Read Density=Current scrf=(smd,solvent=water)

mol_034_E SP+NBO7/CMO after constrained opt at R0+0.30A  [oxime: C11=N12-O13]

1 1

$NBO CMO PRINT=2 E2PERT=0.05 BNDIDX $END


