%chk=mol_021_E_sp2.chk
%nprocshared=8
%mem=16GB
#p wB97XD/6-311+G(d,p) sp pop=nbo7read

mol_021_E_sp2  R(N-O)=1.7197A  [oxime: C12=N13-O14]

1 1
C        4.51417300      0.38691000      0.16859400
O        3.64740300     -0.72304800     -0.04128000
C        2.33156600     -0.54298400     -0.03617800
C        1.56068300     -1.69845300     -0.26715000
C        0.19571700     -1.61359300     -0.27935600
C       -0.44726500     -0.37403500     -0.06830300
C        0.31844000      0.78783500      0.14353400
C        1.70214000      0.69117300      0.15634000
C       -0.36235000      2.11773300      0.32668200
C       -1.61220700      2.18373800     -0.54499700
C       -2.58562100      1.07463800     -0.16736900
C       -1.90182600     -0.26280600     -0.00100700
N       -2.46555100     -1.37445200      0.29062200
O       -4.16447800     -1.11944600      0.21320600
H        5.52189900     -0.01771800      0.12579000
H        4.34112600      0.83542100      1.15071300
H        4.38639400      1.13438000     -0.61925200
H        2.07243200     -2.63544900     -0.44483100
H       -0.39253900     -2.50156200     -0.47606300
H        2.28525300      1.59015000      0.30784100
H        0.32679600      2.92467500      0.07362800
H       -0.63258400      2.25256700      1.38147200
H       -2.11555800      3.14501300     -0.42836100
H       -1.32949500      2.08995100     -1.59720400
H       -3.38155000      0.96685800     -0.90630300
H       -3.07219000      1.29843400      0.78892400
H       -4.45216500     -1.43692200      1.08243500
H       -4.44307100     -1.78561300     -0.43328700

$NBO E2PERT BNDIDX NBOSUM CMO $END


