%chk=mol_021_E_sp3.chk
%nprocshared=8
%mem=16GB
#p wB97XD/6-311+G(d,p) sp pop=nbo7read

mol_021_E_sp3  R(N-O)=1.8197A  [oxime: C12=N13-O14]

1 1
C        4.51318400      0.38744100      0.20283000
O        3.64970100     -0.71776000     -0.04556400
C        2.33390500     -0.54232700     -0.04312700
C        1.56847500     -1.69187000     -0.31446300
C        0.20221400     -1.61160800     -0.33198500
C       -0.43856900     -0.37910500     -0.08706200
C        0.31831600      0.77989600      0.16903700
C        1.70074100      0.68681800      0.18190600
C       -0.38181000      2.09737300      0.36753100
C       -1.58621100      2.18018300     -0.56953700
C       -2.58420000      1.06930400     -0.26462200
C       -1.89861200     -0.25593700     -0.01824600
N       -2.42141100     -1.34084800      0.37668600
O       -4.22348700     -1.12021600      0.25357200
H        5.52173500     -0.01442900      0.15490400
H        4.33261500      0.80622100      1.19655800
H        4.38931500      1.15711500     -0.56388600
H        2.08441000     -2.62076600     -0.52007900
H       -0.38562100     -2.49159900     -0.56205000
H        2.28191900      1.58269600      0.35751500
H        0.31039800      2.91857000      0.17718600
H       -0.70912400      2.19437700      1.41003600
H       -2.09279000      3.14077500     -0.46153600
H       -1.24628100      2.10595700     -1.60592300
H       -3.30381400      0.92894700     -1.07405100
H       -3.16176700      1.29664000      0.63678000
H       -4.49957700     -1.39102200      1.14050100
H       -4.46585500     -1.84473900     -0.34039500

$NBO E2PERT BNDIDX NBOSUM CMO $END


