%chk=mol_021_E_opt.chk
%nprocshared=8
%mem=16GB
#p wB97XD/6-311+G(d,p) opt

mol_021_E opt  [oxime: C12=N13-O14]

1 1
C        4.34780000     -1.15260000      0.45590000
O        3.79240000      0.03690000     -0.11510000
C        2.46490000      0.16690000     -0.16920000
C        1.99310000      1.36300000     -0.74110000
C        0.64530000      1.58260000     -0.83840000
C       -0.28050000      0.62990000     -0.36590000
C        0.19430000     -0.57150000      0.20110000
C        1.56010000     -0.78890000      0.29550000
C       -0.77260000     -1.59990000      0.69830000
C       -2.01280000     -0.94020000      1.26730000
C       -2.68680000     -0.07090000      0.21850000
C       -1.72760000      0.85780000     -0.47250000
N       -2.01310000      1.86760000     -1.20050000
O       -3.75020000      1.92070000     -1.30510000
H        5.42200000     -1.03000000      0.39360000
H        4.04080000     -2.02850000     -0.11350000
H        4.04570000     -1.25200000      1.49740000
H        2.71710000      2.08390000     -1.09310000
H        0.29230000      2.50740000     -1.28090000
H        1.90940000     -1.70940000      0.73710000
H       -0.30830000     -2.23760000      1.44600000
H       -1.05710000     -2.25680000     -0.12910000
H       -2.72070000     -1.69040000      1.60980000
H       -1.74050000     -0.33350000      2.13150000
H       -3.50050000      0.50740000      0.64790000
H       -3.12790000     -0.68310000     -0.56840000
H       -3.83100000      2.00950000     -2.27380000
H       -3.89550000      2.81120000     -0.93330000


