%chk=mol_021_E_sp4.chk
%nprocshared=8
%mem=16GB
#p wB97XD/6-311+G(d,p) sp pop=nbo7read

mol_021_E_sp4  R(N-O)=1.9197A  [oxime: C12=N13-O14]

1 1
C        4.50294000      0.38874700      0.26141300
O        3.64560500     -0.70528700     -0.05312200
C        2.32997100     -0.53807300     -0.05553500
C        1.57468000     -1.67771200     -0.38692400
C        0.20660300     -1.60606800     -0.41271900
C       -0.43344800     -0.38690600     -0.11887500
C        0.30899100      0.76525700      0.20753800
C        1.68927000      0.68084700      0.22048700
C       -0.42314600      2.06095100      0.43222700
C       -1.55500300      2.18176300     -0.59520900
C       -2.57930600      1.06027500     -0.42460300
C       -1.90150600     -0.23885700     -0.06524900
N       -2.34556400     -1.27711200      0.47657100
O       -4.25644300     -1.14712000      0.34658100
H        5.51281300     -0.00895500      0.20832500
H        4.30699200      0.75768100      1.27169400
H        4.38822400      1.19412500     -0.46906800
H        2.09849700     -2.59312700     -0.62933700
H       -0.37937300     -2.47488800     -0.68441800
H        2.26610500      1.57116900      0.43459400
H        0.26639100      2.90100500      0.34194200
H       -0.83305100      2.09388700      1.44900400
H       -2.06868200      3.13809900     -0.48479100
H       -1.13026500      2.15454900     -1.60169900
H       -3.15908800      0.88843000     -1.33517600
H       -3.29255900      1.28057500      0.37284200
H       -4.51280500     -1.36243000      1.25251200
H       -4.47781700     -1.92241600     -0.18539900

$NBO E2PERT BNDIDX NBOSUM CMO $END


