%chk=mol_021_E_ts1_a1.chk
%nprocshared=8
%mem=16GB
#p wB97XD/6-311+G(d,p) opt=(qst2,calcfc) freq pop=nbo7read scrf=(smd,solvent=water) scf=(tight,xqc)

mol_021_E ts1_a1 -- reactant (R_A1)

1 1
C        4.34780000     -1.15260000      0.45590000
O        3.79240000      0.03690000     -0.11510000
C        2.46490000      0.16690000     -0.16920000
C        1.99310000      1.36300000     -0.74110000
C        0.64530000      1.58260000     -0.83840000
C       -0.28050000      0.62990000     -0.36590000
C        0.19430000     -0.57150000      0.20110000
C        1.56010000     -0.78890000      0.29550000
C       -0.77260000     -1.59990000      0.69830000
C       -2.01280000     -0.94020000      1.26730000
C       -2.68680000     -0.07090000      0.21850000
C       -1.72760000      0.85780000     -0.47250000
N       -2.01310000      1.86760000     -1.20050000
O       -3.75020000      1.92070000     -1.30510000
H        5.42200000     -1.03000000      0.39360000
H        4.04080000     -2.02850000     -0.11350000
H        4.04570000     -1.25200000      1.49740000
H        2.71710000      2.08390000     -1.09310000
H        0.29230000      2.50740000     -1.28090000
H        1.90940000     -1.70940000      0.73710000
H       -0.30830000     -2.23760000      1.44600000
H       -1.05710000     -2.25680000     -0.12910000
H       -2.72070000     -1.69040000      1.60980000
H       -1.74050000     -0.33350000      2.13150000
H       -3.50050000      0.50740000      0.64790000
H       -3.12790000     -0.68310000     -0.56840000
H       -3.83100000      2.00950000     -2.27380000
H       -3.89550000      2.81120000     -0.93330000

mol_021_E ts1_a1 -- rearrangement product (P_A1, AIMNet2 guess)

1 1
C        4.32260000     -1.15420000      0.47830000
O        3.84250000      0.06620000     -0.09110000
C        2.52480000      0.26720000     -0.20430000
C        2.15450000      1.46940000     -0.82650000
C        0.83230000      1.77320000     -1.00890000
C       -0.13360000      0.87400000     -0.56920000
C        0.19160000     -0.33920000      0.06340000
C        1.53740000     -0.61850000      0.24390000
C       -0.85560000     -1.35580000      0.47300000
C       -2.12210000     -0.88160000      1.21880000
C       -3.25880000     -0.26990000      0.36140000
C       -2.54410000      0.73820000     -0.40510000
N       -1.49150000      1.14620000     -0.71320000
O       -4.37910000      1.93260000     -1.28410000
H        5.40280000     -1.09140000      0.43340000
H        3.98170000     -2.01030000     -0.10140000
H        4.00440000     -1.24870000      1.51500000
H        2.93620000      2.13780000     -1.15590000
H        0.53070000      2.69520000     -1.48300000
H        1.80850000     -1.54280000      0.73150000
H       -0.37570000     -2.07520000      1.13460000
H       -1.15830000     -1.92340000     -0.41140000
H       -2.54740000     -1.74640000      1.72560000
H       -1.84900000     -0.17430000      1.99680000
H       -4.05350000      0.14910000      0.97250000
H       -3.71450000     -0.98890000     -0.32230000
H       -4.64070000      1.85200000     -2.21030000
H       -4.67400000      2.81470000     -1.02130000

$NBO E2PERT BNDIDX NBOSUM CMO $END


