%chk=mol_022_Z_scan_pt1.chk
%nprocshared=8
%mem=16GB
#p wB97XD/6-311+G(d,p) opt=(ModRedundant) SCF=(Tight,XQC) NoSymm scrf=(smd,solvent=water)

mol_022_Z scan pt1 (R0+0.05A) rigid O-N displacement then constrained opt  [oxime: C3=N2-O1]

1 1
O       -1.83809105      2.47820023      0.51537239
N       -2.52597800      1.17327600     -0.00503000
C       -1.65673900      0.26551700     -0.25397900
C       -2.31396900     -1.02700600     -0.64938300
C       -1.82510900     -2.10188700      0.32179500
C       -0.31870700     -2.27759900      0.19517100
C        0.44173600     -0.97768100      0.08884800
C        1.83150900     -1.01796500      0.18051100
C        2.55568100      0.13907900     -0.00056100
F        3.89845600      0.07747600      0.08700700
C        1.96765300      1.36007400     -0.28244900
C        0.58911700      1.41228000     -0.34849700
C       -0.18832400      0.25994100     -0.14725300
H       -1.67838505      2.39460423      1.47521339
H       -2.49233405      3.18784323      0.38667339
H       -2.00354100     -1.26570600     -1.67176500
H       -3.39807200     -0.92202600     -0.62644900
H       -2.09314300     -1.81312800      1.34297600
H       -2.33244700     -3.04313000      0.10448400
H       -0.09689500     -2.84907700     -0.71389700
H        0.07756600     -2.85851800      1.03085600
H        2.34420500     -1.95240200      0.37772300
H        2.57617000      2.24003700     -0.44676000
H        0.12014100      2.35427600     -0.58877000

B 2 1 F

--Link1--
%chk=mol_022_Z_scan_pt1.chk
%nprocshared=8
%mem=16GB
#p wB97XD/6-311+G(d,p) Geom=Check Guess=Read Stable=Opt Pop=NBO7Read Density=Current scrf=(smd,solvent=water)

mol_022_Z SP+NBO7/CMO after constrained opt at R0+0.05A  [oxime: C3=N2-O1]

1 1

$NBO CMO PRINT=2 E2PERT=0.05 BNDIDX $END

--Link1--
%chk=mol_022_Z_scan_pt2.chk
%nprocshared=8
%mem=16GB
#p wB97XD/6-311+G(d,p) opt=(ModRedundant) SCF=(Tight,XQC) NoSymm scrf=(smd,solvent=water)

mol_022_Z scan pt2 (R0+0.10A) rigid O-N displacement then constrained opt  [oxime: C3=N2-O1]

1 1
O       -1.81610309      2.51991146      0.53200679
N       -2.52597800      1.17327600     -0.00503000
C       -1.65673900      0.26551700     -0.25397900
C       -2.31396900     -1.02700600     -0.64938300
C       -1.82510900     -2.10188700      0.32179500
C       -0.31870700     -2.27759900      0.19517100
C        0.44173600     -0.97768100      0.08884800
C        1.83150900     -1.01796500      0.18051100
C        2.55568100      0.13907900     -0.00056100
F        3.89845600      0.07747600      0.08700700
C        1.96765300      1.36007400     -0.28244900
C        0.58911700      1.41228000     -0.34849700
C       -0.18832400      0.25994100     -0.14725300
H       -1.65639709      2.43631546      1.49184779
H       -2.47034609      3.22955446      0.40330779
H       -2.00354100     -1.26570600     -1.67176500
H       -3.39807200     -0.92202600     -0.62644900
H       -2.09314300     -1.81312800      1.34297600
H       -2.33244700     -3.04313000      0.10448400
H       -0.09689500     -2.84907700     -0.71389700
H        0.07756600     -2.85851800      1.03085600
H        2.34420500     -1.95240200      0.37772300
H        2.57617000      2.24003700     -0.44676000
H        0.12014100      2.35427600     -0.58877000

B 2 1 F

--Link1--
%chk=mol_022_Z_scan_pt2.chk
%nprocshared=8
%mem=16GB
#p wB97XD/6-311+G(d,p) Geom=Check Guess=Read Stable=Opt Pop=NBO7Read Density=Current scrf=(smd,solvent=water)

mol_022_Z SP+NBO7/CMO after constrained opt at R0+0.10A  [oxime: C3=N2-O1]

1 1

$NBO CMO PRINT=2 E2PERT=0.05 BNDIDX $END

--Link1--
%chk=mol_022_Z_scan_pt3.chk
%nprocshared=8
%mem=16GB
#p wB97XD/6-311+G(d,p) opt=(ModRedundant) SCF=(Tight,XQC) NoSymm scrf=(smd,solvent=water)

mol_022_Z scan pt3 (R0+0.15A) rigid O-N displacement then constrained opt  [oxime: C3=N2-O1]

1 1
O       -1.79411514      2.56162270      0.54864118
N       -2.52597800      1.17327600     -0.00503000
C       -1.65673900      0.26551700     -0.25397900
C       -2.31396900     -1.02700600     -0.64938300
C       -1.82510900     -2.10188700      0.32179500
C       -0.31870700     -2.27759900      0.19517100
C        0.44173600     -0.97768100      0.08884800
C        1.83150900     -1.01796500      0.18051100
C        2.55568100      0.13907900     -0.00056100
F        3.89845600      0.07747600      0.08700700
C        1.96765300      1.36007400     -0.28244900
C        0.58911700      1.41228000     -0.34849700
C       -0.18832400      0.25994100     -0.14725300
H       -1.63440914      2.47802670      1.50848218
H       -2.44835814      3.27126570      0.41994218
H       -2.00354100     -1.26570600     -1.67176500
H       -3.39807200     -0.92202600     -0.62644900
H       -2.09314300     -1.81312800      1.34297600
H       -2.33244700     -3.04313000      0.10448400
H       -0.09689500     -2.84907700     -0.71389700
H        0.07756600     -2.85851800      1.03085600
H        2.34420500     -1.95240200      0.37772300
H        2.57617000      2.24003700     -0.44676000
H        0.12014100      2.35427600     -0.58877000

B 2 1 F

--Link1--
%chk=mol_022_Z_scan_pt3.chk
%nprocshared=8
%mem=16GB
#p wB97XD/6-311+G(d,p) Geom=Check Guess=Read Stable=Opt Pop=NBO7Read Density=Current scrf=(smd,solvent=water)

mol_022_Z SP+NBO7/CMO after constrained opt at R0+0.15A  [oxime: C3=N2-O1]

1 1

$NBO CMO PRINT=2 E2PERT=0.05 BNDIDX $END

--Link1--
%chk=mol_022_Z_scan_pt4.chk
%nprocshared=8
%mem=16GB
#p wB97XD/6-311+G(d,p) opt=(ModRedundant) SCF=(Tight,XQC) NoSymm scrf=(smd,solvent=water)

mol_022_Z scan pt4 (R0+0.20A) rigid O-N displacement then constrained opt  [oxime: C3=N2-O1]

1 1
O       -1.77212719      2.60333393      0.56527558
N       -2.52597800      1.17327600     -0.00503000
C       -1.65673900      0.26551700     -0.25397900
C       -2.31396900     -1.02700600     -0.64938300
C       -1.82510900     -2.10188700      0.32179500
C       -0.31870700     -2.27759900      0.19517100
C        0.44173600     -0.97768100      0.08884800
C        1.83150900     -1.01796500      0.18051100
C        2.55568100      0.13907900     -0.00056100
F        3.89845600      0.07747600      0.08700700
C        1.96765300      1.36007400     -0.28244900
C        0.58911700      1.41228000     -0.34849700
C       -0.18832400      0.25994100     -0.14725300
H       -1.61242119      2.51973793      1.52511658
H       -2.42637019      3.31297693      0.43657658
H       -2.00354100     -1.26570600     -1.67176500
H       -3.39807200     -0.92202600     -0.62644900
H       -2.09314300     -1.81312800      1.34297600
H       -2.33244700     -3.04313000      0.10448400
H       -0.09689500     -2.84907700     -0.71389700
H        0.07756600     -2.85851800      1.03085600
H        2.34420500     -1.95240200      0.37772300
H        2.57617000      2.24003700     -0.44676000
H        0.12014100      2.35427600     -0.58877000

B 2 1 F

--Link1--
%chk=mol_022_Z_scan_pt4.chk
%nprocshared=8
%mem=16GB
#p wB97XD/6-311+G(d,p) Geom=Check Guess=Read Stable=Opt Pop=NBO7Read Density=Current scrf=(smd,solvent=water)

mol_022_Z SP+NBO7/CMO after constrained opt at R0+0.20A  [oxime: C3=N2-O1]

1 1

$NBO CMO PRINT=2 E2PERT=0.05 BNDIDX $END

--Link1--
%chk=mol_022_Z_scan_pt5.chk
%nprocshared=8
%mem=16GB
#p wB97XD/6-311+G(d,p) opt=(ModRedundant) SCF=(Tight,XQC) NoSymm scrf=(smd,solvent=water)

mol_022_Z scan pt5 (R0+0.25A) rigid O-N displacement then constrained opt  [oxime: C3=N2-O1]

1 1
O       -1.75013924      2.64504516      0.58190997
N       -2.52597800      1.17327600     -0.00503000
C       -1.65673900      0.26551700     -0.25397900
C       -2.31396900     -1.02700600     -0.64938300
C       -1.82510900     -2.10188700      0.32179500
C       -0.31870700     -2.27759900      0.19517100
C        0.44173600     -0.97768100      0.08884800
C        1.83150900     -1.01796500      0.18051100
C        2.55568100      0.13907900     -0.00056100
F        3.89845600      0.07747600      0.08700700
C        1.96765300      1.36007400     -0.28244900
C        0.58911700      1.41228000     -0.34849700
C       -0.18832400      0.25994100     -0.14725300
H       -1.59043324      2.56144916      1.54175097
H       -2.40438224      3.35468816      0.45321097
H       -2.00354100     -1.26570600     -1.67176500
H       -3.39807200     -0.92202600     -0.62644900
H       -2.09314300     -1.81312800      1.34297600
H       -2.33244700     -3.04313000      0.10448400
H       -0.09689500     -2.84907700     -0.71389700
H        0.07756600     -2.85851800      1.03085600
H        2.34420500     -1.95240200      0.37772300
H        2.57617000      2.24003700     -0.44676000
H        0.12014100      2.35427600     -0.58877000

B 2 1 F

--Link1--
%chk=mol_022_Z_scan_pt5.chk
%nprocshared=8
%mem=16GB
#p wB97XD/6-311+G(d,p) Geom=Check Guess=Read Stable=Opt Pop=NBO7Read Density=Current scrf=(smd,solvent=water)

mol_022_Z SP+NBO7/CMO after constrained opt at R0+0.25A  [oxime: C3=N2-O1]

1 1

$NBO CMO PRINT=2 E2PERT=0.05 BNDIDX $END

--Link1--
%chk=mol_022_Z_scan_pt6.chk
%nprocshared=8
%mem=16GB
#p wB97XD/6-311+G(d,p) opt=(ModRedundant) SCF=(Tight,XQC) NoSymm scrf=(smd,solvent=water)

mol_022_Z scan pt6 (R0+0.30A) rigid O-N displacement then constrained opt  [oxime: C3=N2-O1]

1 1
O       -1.72815128      2.68675639      0.59854437
N       -2.52597800      1.17327600     -0.00503000
C       -1.65673900      0.26551700     -0.25397900
C       -2.31396900     -1.02700600     -0.64938300
C       -1.82510900     -2.10188700      0.32179500
C       -0.31870700     -2.27759900      0.19517100
C        0.44173600     -0.97768100      0.08884800
C        1.83150900     -1.01796500      0.18051100
C        2.55568100      0.13907900     -0.00056100
F        3.89845600      0.07747600      0.08700700
C        1.96765300      1.36007400     -0.28244900
C        0.58911700      1.41228000     -0.34849700
C       -0.18832400      0.25994100     -0.14725300
H       -1.56844528      2.60316039      1.55838537
H       -2.38239428      3.39639939      0.46984537
H       -2.00354100     -1.26570600     -1.67176500
H       -3.39807200     -0.92202600     -0.62644900
H       -2.09314300     -1.81312800      1.34297600
H       -2.33244700     -3.04313000      0.10448400
H       -0.09689500     -2.84907700     -0.71389700
H        0.07756600     -2.85851800      1.03085600
H        2.34420500     -1.95240200      0.37772300
H        2.57617000      2.24003700     -0.44676000
H        0.12014100      2.35427600     -0.58877000

B 2 1 F

--Link1--
%chk=mol_022_Z_scan_pt6.chk
%nprocshared=8
%mem=16GB
#p wB97XD/6-311+G(d,p) Geom=Check Guess=Read Stable=Opt Pop=NBO7Read Density=Current scrf=(smd,solvent=water)

mol_022_Z SP+NBO7/CMO after constrained opt at R0+0.30A  [oxime: C3=N2-O1]

1 1

$NBO CMO PRINT=2 E2PERT=0.05 BNDIDX $END


