%chk=mol_022_Z_opt.chk
%nprocshared=8
%mem=16GB
#p wB97XD/6-311+G(d,p) opt scrf=(smd,solvent=water)

mol_022_Z opt  [oxime: C3=N2-O1]

1 1
O       -0.42070000      3.06060000      0.73190000
N       -1.56230000      2.02290000      0.08240000
C       -1.02540000      0.91050000     -0.23450000
C       -2.14510000     -0.01830000     -0.65170000
C       -2.05190000     -1.27500000      0.20020000
C       -0.70770000     -1.95360000     -0.00360000
C        0.47260000     -1.02010000     -0.00540000
C        1.74960000     -1.54400000      0.12730000
C        2.84950000     -0.71590000      0.00390000
F        4.06780000     -1.24190000      0.12020000
C        2.73360000      0.64410000     -0.25080000
C        1.47210000      1.18010000     -0.34880000
C        0.32930000      0.37470000     -0.19570000
H       -0.29230000      2.76130000      1.65430000
H       -0.92760000      3.89410000      0.74680000
H       -1.99480000     -0.25700000     -1.70480000
H       -3.10890000      0.47390000     -0.56490000
H       -2.20250000     -1.01610000      1.24890000
H       -2.85330000     -1.95770000     -0.07230000
H       -0.71370000     -2.46860000     -0.96780000
H       -0.55850000     -2.73200000      0.74360000
H        1.89250000     -2.60040000      0.30710000
H        3.61800000      1.24930000     -0.37740000
H        1.38020000      2.22910000     -0.58860000


