%chk=mol_024_E_scan_pt1.chk
%nprocshared=8
%mem=16GB
#p wB97XD/6-311+G(d,p) opt=(ModRedundant) SCF=(Tight,XQC) NoSymm scrf=(smd,solvent=water)

mol_024_E scan pt1 (R0+0.05A) rigid O-N displacement then constrained opt  [oxime: C8=N9-O10]

1 1
C       -3.57040100     -1.62475100      0.26468500
C       -2.45488300     -0.63286200      0.08010100
C       -2.73479700      0.72034500     -0.14458700
C       -1.71843100      1.65115900     -0.28590900
C       -0.37880300      1.26944800     -0.21981300
C       -0.09146900     -0.08664900     -0.01733400
C       -1.12499200     -1.02072100      0.14021000
C        1.32519700     -0.50100500     -0.00369900
N        1.51694700     -1.73447200     -0.30125600
O        3.04020362     -2.03586300     -0.24737713
C        2.40587800      0.50267800      0.28162800
C        1.86530100      1.88715500      0.61993900
C        0.73792300      2.27114800     -0.33202800
H       -3.18262800     -2.63748400      0.38834400
H       -4.16745200     -1.37711300      1.14705000
H       -4.24361100     -1.61755900     -0.59693600
H       -3.76896800      1.04740000     -0.19187700
H       -1.96132600      2.69732200     -0.43990800
H       -0.88232500     -2.06038400      0.32834100
H        3.15365462     -2.87980900     -0.72120513
H        3.31872262     -2.18970500      0.67690887
H        3.03591800      0.54482500     -0.61394700
H        3.03491000      0.12092100      1.09032900
H        1.49056200      1.89896000      1.64783300
H        2.68376900      2.60654000      0.56045800
H        1.11680300      2.29180700     -1.36121100
H        0.35876500      3.26981900     -0.10818900

B 9 10 F

--Link1--
%chk=mol_024_E_scan_pt1.chk
%nprocshared=8
%mem=16GB
#p wB97XD/6-311+G(d,p) Geom=Check Guess=Read Stable=Opt Pop=NBO7Read Density=Current scrf=(smd,solvent=water)

mol_024_E SP+NBO7/CMO after constrained opt at R0+0.05A  [oxime: C8=N9-O10]

1 1

$NBO CMO PRINT=2 E2PERT=0.05 BNDIDX $END

--Link1--
%chk=mol_024_E_scan_pt2.chk
%nprocshared=8
%mem=16GB
#p wB97XD/6-311+G(d,p) opt=(ModRedundant) SCF=(Tight,XQC) NoSymm scrf=(smd,solvent=water)

mol_024_E scan pt2 (R0+0.10A) rigid O-N displacement then constrained opt  [oxime: C8=N9-O10]

1 1
C       -3.57040100     -1.62475100      0.26468500
C       -2.45488300     -0.63286200      0.08010100
C       -2.73479700      0.72034500     -0.14458700
C       -1.71843100      1.65115900     -0.28590900
C       -0.37880300      1.26944800     -0.21981300
C       -0.09146900     -0.08664900     -0.01733400
C       -1.12499200     -1.02072100      0.14021000
C        1.32519700     -0.50100500     -0.00369900
N        1.51694700     -1.73447200     -0.30125600
O        3.08922324     -2.04556201     -0.24564327
C        2.40587800      0.50267800      0.28162800
C        1.86530100      1.88715500      0.61993900
C        0.73792300      2.27114800     -0.33202800
H       -3.18262800     -2.63748400      0.38834400
H       -4.16745200     -1.37711300      1.14705000
H       -4.24361100     -1.61755900     -0.59693600
H       -3.76896800      1.04740000     -0.19187700
H       -1.96132600      2.69732200     -0.43990800
H       -0.88232500     -2.06038400      0.32834100
H        3.20267424     -2.88950801     -0.71947127
H        3.36774224     -2.19940401      0.67864273
H        3.03591800      0.54482500     -0.61394700
H        3.03491000      0.12092100      1.09032900
H        1.49056200      1.89896000      1.64783300
H        2.68376900      2.60654000      0.56045800
H        1.11680300      2.29180700     -1.36121100
H        0.35876500      3.26981900     -0.10818900

B 9 10 F

--Link1--
%chk=mol_024_E_scan_pt2.chk
%nprocshared=8
%mem=16GB
#p wB97XD/6-311+G(d,p) Geom=Check Guess=Read Stable=Opt Pop=NBO7Read Density=Current scrf=(smd,solvent=water)

mol_024_E SP+NBO7/CMO after constrained opt at R0+0.10A  [oxime: C8=N9-O10]

1 1

$NBO CMO PRINT=2 E2PERT=0.05 BNDIDX $END

--Link1--
%chk=mol_024_E_scan_pt3.chk
%nprocshared=8
%mem=16GB
#p wB97XD/6-311+G(d,p) opt=(ModRedundant) SCF=(Tight,XQC) NoSymm scrf=(smd,solvent=water)

mol_024_E scan pt3 (R0+0.15A) rigid O-N displacement then constrained opt  [oxime: C8=N9-O10]

1 1
C       -3.57040100     -1.62475100      0.26468500
C       -2.45488300     -0.63286200      0.08010100
C       -2.73479700      0.72034500     -0.14458700
C       -1.71843100      1.65115900     -0.28590900
C       -0.37880300      1.26944800     -0.21981300
C       -0.09146900     -0.08664900     -0.01733400
C       -1.12499200     -1.02072100      0.14021000
C        1.32519700     -0.50100500     -0.00369900
N        1.51694700     -1.73447200     -0.30125600
O        3.13824286     -2.05526101     -0.24390940
C        2.40587800      0.50267800      0.28162800
C        1.86530100      1.88715500      0.61993900
C        0.73792300      2.27114800     -0.33202800
H       -3.18262800     -2.63748400      0.38834400
H       -4.16745200     -1.37711300      1.14705000
H       -4.24361100     -1.61755900     -0.59693600
H       -3.76896800      1.04740000     -0.19187700
H       -1.96132600      2.69732200     -0.43990800
H       -0.88232500     -2.06038400      0.32834100
H        3.25169386     -2.89920701     -0.71773740
H        3.41676186     -2.20910301      0.68037660
H        3.03591800      0.54482500     -0.61394700
H        3.03491000      0.12092100      1.09032900
H        1.49056200      1.89896000      1.64783300
H        2.68376900      2.60654000      0.56045800
H        1.11680300      2.29180700     -1.36121100
H        0.35876500      3.26981900     -0.10818900

B 9 10 F

--Link1--
%chk=mol_024_E_scan_pt3.chk
%nprocshared=8
%mem=16GB
#p wB97XD/6-311+G(d,p) Geom=Check Guess=Read Stable=Opt Pop=NBO7Read Density=Current scrf=(smd,solvent=water)

mol_024_E SP+NBO7/CMO after constrained opt at R0+0.15A  [oxime: C8=N9-O10]

1 1

$NBO CMO PRINT=2 E2PERT=0.05 BNDIDX $END

--Link1--
%chk=mol_024_E_scan_pt4.chk
%nprocshared=8
%mem=16GB
#p wB97XD/6-311+G(d,p) opt=(ModRedundant) SCF=(Tight,XQC) NoSymm scrf=(smd,solvent=water)

mol_024_E scan pt4 (R0+0.20A) rigid O-N displacement then constrained opt  [oxime: C8=N9-O10]

1 1
C       -3.57040100     -1.62475100      0.26468500
C       -2.45488300     -0.63286200      0.08010100
C       -2.73479700      0.72034500     -0.14458700
C       -1.71843100      1.65115900     -0.28590900
C       -0.37880300      1.26944800     -0.21981300
C       -0.09146900     -0.08664900     -0.01733400
C       -1.12499200     -1.02072100      0.14021000
C        1.32519700     -0.50100500     -0.00369900
N        1.51694700     -1.73447200     -0.30125600
O        3.18726248     -2.06496002     -0.24217554
C        2.40587800      0.50267800      0.28162800
C        1.86530100      1.88715500      0.61993900
C        0.73792300      2.27114800     -0.33202800
H       -3.18262800     -2.63748400      0.38834400
H       -4.16745200     -1.37711300      1.14705000
H       -4.24361100     -1.61755900     -0.59693600
H       -3.76896800      1.04740000     -0.19187700
H       -1.96132600      2.69732200     -0.43990800
H       -0.88232500     -2.06038400      0.32834100
H        3.30071348     -2.90890602     -0.71600354
H        3.46578148     -2.21880202      0.68211046
H        3.03591800      0.54482500     -0.61394700
H        3.03491000      0.12092100      1.09032900
H        1.49056200      1.89896000      1.64783300
H        2.68376900      2.60654000      0.56045800
H        1.11680300      2.29180700     -1.36121100
H        0.35876500      3.26981900     -0.10818900

B 9 10 F

--Link1--
%chk=mol_024_E_scan_pt4.chk
%nprocshared=8
%mem=16GB
#p wB97XD/6-311+G(d,p) Geom=Check Guess=Read Stable=Opt Pop=NBO7Read Density=Current scrf=(smd,solvent=water)

mol_024_E SP+NBO7/CMO after constrained opt at R0+0.20A  [oxime: C8=N9-O10]

1 1

$NBO CMO PRINT=2 E2PERT=0.05 BNDIDX $END

--Link1--
%chk=mol_024_E_scan_pt5.chk
%nprocshared=8
%mem=16GB
#p wB97XD/6-311+G(d,p) opt=(ModRedundant) SCF=(Tight,XQC) NoSymm scrf=(smd,solvent=water)

mol_024_E scan pt5 (R0+0.25A) rigid O-N displacement then constrained opt  [oxime: C8=N9-O10]

1 1
C       -3.57040100     -1.62475100      0.26468500
C       -2.45488300     -0.63286200      0.08010100
C       -2.73479700      0.72034500     -0.14458700
C       -1.71843100      1.65115900     -0.28590900
C       -0.37880300      1.26944800     -0.21981300
C       -0.09146900     -0.08664900     -0.01733400
C       -1.12499200     -1.02072100      0.14021000
C        1.32519700     -0.50100500     -0.00369900
N        1.51694700     -1.73447200     -0.30125600
O        3.23628209     -2.07465902     -0.24044167
C        2.40587800      0.50267800      0.28162800
C        1.86530100      1.88715500      0.61993900
C        0.73792300      2.27114800     -0.33202800
H       -3.18262800     -2.63748400      0.38834400
H       -4.16745200     -1.37711300      1.14705000
H       -4.24361100     -1.61755900     -0.59693600
H       -3.76896800      1.04740000     -0.19187700
H       -1.96132600      2.69732200     -0.43990800
H       -0.88232500     -2.06038400      0.32834100
H        3.34973309     -2.91860502     -0.71426967
H        3.51480109     -2.22850102      0.68384433
H        3.03591800      0.54482500     -0.61394700
H        3.03491000      0.12092100      1.09032900
H        1.49056200      1.89896000      1.64783300
H        2.68376900      2.60654000      0.56045800
H        1.11680300      2.29180700     -1.36121100
H        0.35876500      3.26981900     -0.10818900

B 9 10 F

--Link1--
%chk=mol_024_E_scan_pt5.chk
%nprocshared=8
%mem=16GB
#p wB97XD/6-311+G(d,p) Geom=Check Guess=Read Stable=Opt Pop=NBO7Read Density=Current scrf=(smd,solvent=water)

mol_024_E SP+NBO7/CMO after constrained opt at R0+0.25A  [oxime: C8=N9-O10]

1 1

$NBO CMO PRINT=2 E2PERT=0.05 BNDIDX $END

--Link1--
%chk=mol_024_E_scan_pt6.chk
%nprocshared=8
%mem=16GB
#p wB97XD/6-311+G(d,p) opt=(ModRedundant) SCF=(Tight,XQC) NoSymm scrf=(smd,solvent=water)

mol_024_E scan pt6 (R0+0.30A) rigid O-N displacement then constrained opt  [oxime: C8=N9-O10]

1 1
C       -3.57040100     -1.62475100      0.26468500
C       -2.45488300     -0.63286200      0.08010100
C       -2.73479700      0.72034500     -0.14458700
C       -1.71843100      1.65115900     -0.28590900
C       -0.37880300      1.26944800     -0.21981300
C       -0.09146900     -0.08664900     -0.01733400
C       -1.12499200     -1.02072100      0.14021000
C        1.32519700     -0.50100500     -0.00369900
N        1.51694700     -1.73447200     -0.30125600
O        3.28530171     -2.08435802     -0.23870781
C        2.40587800      0.50267800      0.28162800
C        1.86530100      1.88715500      0.61993900
C        0.73792300      2.27114800     -0.33202800
H       -3.18262800     -2.63748400      0.38834400
H       -4.16745200     -1.37711300      1.14705000
H       -4.24361100     -1.61755900     -0.59693600
H       -3.76896800      1.04740000     -0.19187700
H       -1.96132600      2.69732200     -0.43990800
H       -0.88232500     -2.06038400      0.32834100
H        3.39875271     -2.92830402     -0.71253581
H        3.56382071     -2.23820002      0.68557819
H        3.03591800      0.54482500     -0.61394700
H        3.03491000      0.12092100      1.09032900
H        1.49056200      1.89896000      1.64783300
H        2.68376900      2.60654000      0.56045800
H        1.11680300      2.29180700     -1.36121100
H        0.35876500      3.26981900     -0.10818900

B 9 10 F

--Link1--
%chk=mol_024_E_scan_pt6.chk
%nprocshared=8
%mem=16GB
#p wB97XD/6-311+G(d,p) Geom=Check Guess=Read Stable=Opt Pop=NBO7Read Density=Current scrf=(smd,solvent=water)

mol_024_E SP+NBO7/CMO after constrained opt at R0+0.30A  [oxime: C8=N9-O10]

1 1

$NBO CMO PRINT=2 E2PERT=0.05 BNDIDX $END


