24
mol_031_E_opt
O       -3.051000      1.946700      0.347400
N       -1.359200      1.904200      0.245500
C       -1.016800      0.688400      0.067000
C       -1.922100     -0.498200     -0.082100
C       -1.214200     -1.703200     -0.670600
C        0.070300     -1.986900      0.080200
C        0.966800     -0.789100      0.074700
C        2.351700     -0.927900      0.094600
F        2.865000     -2.169500      0.131000
C        3.218500      0.150600      0.072400
C        2.689200      1.433900      0.035300
C        1.323300      1.629000      0.027200
C        0.457000      0.523300      0.048400
H       -3.256900      2.541100     -0.400100
H       -3.154000      2.474700      1.162900
H       -2.286500     -0.714000      0.924100
H       -2.789800     -0.215500     -0.671900
H       -0.995900     -1.524100     -1.723600
H       -1.881600     -2.558600     -0.621600
H       -0.157700     -2.260000      1.115300
H        0.574700     -2.845800     -0.353200
H        4.285800     -0.016000      0.083000
H        3.357700      2.281900      0.014900
H        0.925500      2.634600     -0.000700
