%chk=mol_027_Z_opt.chk
%nprocshared=10
%mem=16GB
#p wB97XD/6-311+G(d,p) opt scrf=(smd,solvent=water)

mol_027_Z opt  [oxime: C10=N11-O12]

1 1
O        4.15110000      0.09100000      0.55620000
N        3.65450000     -0.95600000      0.15030000
O        4.25760000     -1.98720000     -0.10400000
C        2.19130000     -0.96620000     -0.05170000
C        1.56810000     -2.10970000     -0.53010000
C        0.19520000     -2.11130000     -0.68660000
C       -0.56620000     -0.98570000     -0.38080000
C        0.09690000      0.18360000      0.05440000
C        1.48040000      0.17230000      0.25550000
C       -0.72590000      1.36620000      0.28450000
N       -0.51400000      2.61700000      0.26810000
O        1.10560000      2.93470000     -0.16110000
C       -2.23150000      1.23030000      0.59530000
C       -2.66610000     -0.22110000      0.67930000
C       -2.05930000     -1.01090000     -0.46740000
H        2.16240000     -2.98040000     -0.76080000
H       -0.30230000     -3.00360000     -1.04060000
H        2.02360000      0.99450000      0.68850000
H        1.16400000      3.87990000      0.07510000
H        1.11690000      2.87010000     -1.13590000
H       -2.43630000      1.77180000      1.52010000
H       -2.76710000      1.75760000     -0.19550000
H       -3.75280000     -0.27470000      0.64410000
H       -2.35380000     -0.65080000      1.63140000
H       -2.37550000     -0.57340000     -1.41900000
H       -2.41650000     -2.03800000     -0.46910000


