%chk=mol_027_Z_scan_pt1.chk
%nprocshared=10
%mem=16GB
#p wB97XD/6-311+G(d,p) opt=(ModRedundant) SCF=(Tight,XQC) NoSymm scrf=(smd,solvent=water)

mol_027_Z scan pt1 (R0+0.05A) rigid O-N displacement then constrained opt  [oxime: C10=N11-O12]

1 1
O        3.23884100      1.34956100      0.67105100
N        3.10734900      0.20500200      0.27197600
O        4.04622600     -0.54304700      0.06100600
C        1.75467100     -0.29745800      0.03343700
C        1.58783100     -1.61393600     -0.37858500
C        0.30382600     -2.09022700     -0.57427700
C       -0.80134300     -1.26660000     -0.37056800
C       -0.59385000      0.07021800      0.00780500
C        0.68810500      0.56213900      0.22633700
C       -1.81109200      0.88197700      0.19075100
N       -2.04392800      2.07709400     -0.20129700
O       -0.78627259      2.65307419     -0.91715145
C       -3.00077800      0.24061700      0.86573400
C       -2.99338500     -1.29167900      0.74233900
C       -2.21231000     -1.76242200     -0.48731300
H        2.44624400     -2.25516200     -0.52610500
H        0.15314900     -3.12061900     -0.87290400
H        0.85523500      1.57693200      0.55581700
H       -0.81677159      3.61660719     -0.77357545
H       -0.87525459      2.50186319     -1.87877645
H       -2.96078700      0.53936300      1.91686200
H       -3.90924600      0.66813600      0.43985400
H       -4.02330200     -1.64592000      0.69159100
H       -2.53768300     -1.73189200      1.63244000
H       -2.67017700     -1.36169800     -1.39904800
H       -2.22202300     -2.84986100     -0.56392400

B 11 12 F

--Link1--
%chk=mol_027_Z_scan_pt1.chk
%nprocshared=10
%mem=16GB
#p wB97XD/6-311+G(d,p) Geom=Check Guess=Read Stable=Opt Pop=NBO7Read Density=Current scrf=(smd,solvent=water)

mol_027_Z SP+NBO7/CMO after constrained opt at R0+0.05A  [oxime: C10=N11-O12]

1 1

$NBO CMO PRINT=2 E2PERT=0.05 BNDIDX $END

--Link1--
%chk=mol_027_Z_scan_pt2.chk
%nprocshared=10
%mem=16GB
#p wB97XD/6-311+G(d,p) opt=(ModRedundant) SCF=(Tight,XQC) NoSymm scrf=(smd,solvent=water)

mol_027_Z scan pt2 (R0+0.10A) rigid O-N displacement then constrained opt  [oxime: C10=N11-O12]

1 1
O        3.23884100      1.34956100      0.67105100
N        3.10734900      0.20500200      0.27197600
O        4.04622600     -0.54304700      0.06100600
C        1.75467100     -0.29745800      0.03343700
C        1.58783100     -1.61393600     -0.37858500
C        0.30382600     -2.09022700     -0.57427700
C       -0.80134300     -1.26660000     -0.37056800
C       -0.59385000      0.07021800      0.00780500
C        0.68810500      0.56213900      0.22633700
C       -1.81109200      0.88197700      0.19075100
N       -2.04392800      2.07709400     -0.20129700
O       -0.74589918      2.67156437     -0.94013189
C       -3.00077800      0.24061700      0.86573400
C       -2.99338500     -1.29167900      0.74233900
C       -2.21231000     -1.76242200     -0.48731300
H        2.44624400     -2.25516200     -0.52610500
H        0.15314900     -3.12061900     -0.87290400
H        0.85523500      1.57693200      0.55581700
H       -0.77639818      3.63509737     -0.79655589
H       -0.83488118      2.52035337     -1.90175689
H       -2.96078700      0.53936300      1.91686200
H       -3.90924600      0.66813600      0.43985400
H       -4.02330200     -1.64592000      0.69159100
H       -2.53768300     -1.73189200      1.63244000
H       -2.67017700     -1.36169800     -1.39904800
H       -2.22202300     -2.84986100     -0.56392400

B 11 12 F

--Link1--
%chk=mol_027_Z_scan_pt2.chk
%nprocshared=10
%mem=16GB
#p wB97XD/6-311+G(d,p) Geom=Check Guess=Read Stable=Opt Pop=NBO7Read Density=Current scrf=(smd,solvent=water)

mol_027_Z SP+NBO7/CMO after constrained opt at R0+0.10A  [oxime: C10=N11-O12]

1 1

$NBO CMO PRINT=2 E2PERT=0.05 BNDIDX $END

--Link1--
%chk=mol_027_Z_scan_pt3.chk
%nprocshared=10
%mem=16GB
#p wB97XD/6-311+G(d,p) opt=(ModRedundant) SCF=(Tight,XQC) NoSymm scrf=(smd,solvent=water)

mol_027_Z scan pt3 (R0+0.15A) rigid O-N displacement then constrained opt  [oxime: C10=N11-O12]

1 1
O        3.23884100      1.34956100      0.67105100
N        3.10734900      0.20500200      0.27197600
O        4.04622600     -0.54304700      0.06100600
C        1.75467100     -0.29745800      0.03343700
C        1.58783100     -1.61393600     -0.37858500
C        0.30382600     -2.09022700     -0.57427700
C       -0.80134300     -1.26660000     -0.37056800
C       -0.59385000      0.07021800      0.00780500
C        0.68810500      0.56213900      0.22633700
C       -1.81109200      0.88197700      0.19075100
N       -2.04392800      2.07709400     -0.20129700
O       -0.70552578      2.69005456     -0.96311234
C       -3.00077800      0.24061700      0.86573400
C       -2.99338500     -1.29167900      0.74233900
C       -2.21231000     -1.76242200     -0.48731300
H        2.44624400     -2.25516200     -0.52610500
H        0.15314900     -3.12061900     -0.87290400
H        0.85523500      1.57693200      0.55581700
H       -0.73602478      3.65358756     -0.81953634
H       -0.79450778      2.53884356     -1.92473734
H       -2.96078700      0.53936300      1.91686200
H       -3.90924600      0.66813600      0.43985400
H       -4.02330200     -1.64592000      0.69159100
H       -2.53768300     -1.73189200      1.63244000
H       -2.67017700     -1.36169800     -1.39904800
H       -2.22202300     -2.84986100     -0.56392400

B 11 12 F

--Link1--
%chk=mol_027_Z_scan_pt3.chk
%nprocshared=10
%mem=16GB
#p wB97XD/6-311+G(d,p) Geom=Check Guess=Read Stable=Opt Pop=NBO7Read Density=Current scrf=(smd,solvent=water)

mol_027_Z SP+NBO7/CMO after constrained opt at R0+0.15A  [oxime: C10=N11-O12]

1 1

$NBO CMO PRINT=2 E2PERT=0.05 BNDIDX $END

--Link1--
%chk=mol_027_Z_scan_pt4.chk
%nprocshared=10
%mem=16GB
#p wB97XD/6-311+G(d,p) opt=(ModRedundant) SCF=(Tight,XQC) NoSymm scrf=(smd,solvent=water)

mol_027_Z scan pt4 (R0+0.20A) rigid O-N displacement then constrained opt  [oxime: C10=N11-O12]

1 1
O        3.23884100      1.34956100      0.67105100
N        3.10734900      0.20500200      0.27197600
O        4.04622600     -0.54304700      0.06100600
C        1.75467100     -0.29745800      0.03343700
C        1.58783100     -1.61393600     -0.37858500
C        0.30382600     -2.09022700     -0.57427700
C       -0.80134300     -1.26660000     -0.37056800
C       -0.59385000      0.07021800      0.00780500
C        0.68810500      0.56213900      0.22633700
C       -1.81109200      0.88197700      0.19075100
N       -2.04392800      2.07709400     -0.20129700
O       -0.66515237      2.70854475     -0.98609279
C       -3.00077800      0.24061700      0.86573400
C       -2.99338500     -1.29167900      0.74233900
C       -2.21231000     -1.76242200     -0.48731300
H        2.44624400     -2.25516200     -0.52610500
H        0.15314900     -3.12061900     -0.87290400
H        0.85523500      1.57693200      0.55581700
H       -0.69565137      3.67207775     -0.84251679
H       -0.75413437      2.55733375     -1.94771779
H       -2.96078700      0.53936300      1.91686200
H       -3.90924600      0.66813600      0.43985400
H       -4.02330200     -1.64592000      0.69159100
H       -2.53768300     -1.73189200      1.63244000
H       -2.67017700     -1.36169800     -1.39904800
H       -2.22202300     -2.84986100     -0.56392400

B 11 12 F

--Link1--
%chk=mol_027_Z_scan_pt4.chk
%nprocshared=10
%mem=16GB
#p wB97XD/6-311+G(d,p) Geom=Check Guess=Read Stable=Opt Pop=NBO7Read Density=Current scrf=(smd,solvent=water)

mol_027_Z SP+NBO7/CMO after constrained opt at R0+0.20A  [oxime: C10=N11-O12]

1 1

$NBO CMO PRINT=2 E2PERT=0.05 BNDIDX $END

--Link1--
%chk=mol_027_Z_scan_pt5.chk
%nprocshared=10
%mem=16GB
#p wB97XD/6-311+G(d,p) opt=(ModRedundant) SCF=(Tight,XQC) NoSymm scrf=(smd,solvent=water)

mol_027_Z scan pt5 (R0+0.25A) rigid O-N displacement then constrained opt  [oxime: C10=N11-O12]

1 1
O        3.23884100      1.34956100      0.67105100
N        3.10734900      0.20500200      0.27197600
O        4.04622600     -0.54304700      0.06100600
C        1.75467100     -0.29745800      0.03343700
C        1.58783100     -1.61393600     -0.37858500
C        0.30382600     -2.09022700     -0.57427700
C       -0.80134300     -1.26660000     -0.37056800
C       -0.59385000      0.07021800      0.00780500
C        0.68810500      0.56213900      0.22633700
C       -1.81109200      0.88197700      0.19075100
N       -2.04392800      2.07709400     -0.20129700
O       -0.62477896      2.72703493     -1.00907324
C       -3.00077800      0.24061700      0.86573400
C       -2.99338500     -1.29167900      0.74233900
C       -2.21231000     -1.76242200     -0.48731300
H        2.44624400     -2.25516200     -0.52610500
H        0.15314900     -3.12061900     -0.87290400
H        0.85523500      1.57693200      0.55581700
H       -0.65527796      3.69056793     -0.86549724
H       -0.71376096      2.57582393     -1.97069824
H       -2.96078700      0.53936300      1.91686200
H       -3.90924600      0.66813600      0.43985400
H       -4.02330200     -1.64592000      0.69159100
H       -2.53768300     -1.73189200      1.63244000
H       -2.67017700     -1.36169800     -1.39904800
H       -2.22202300     -2.84986100     -0.56392400

B 11 12 F

--Link1--
%chk=mol_027_Z_scan_pt5.chk
%nprocshared=10
%mem=16GB
#p wB97XD/6-311+G(d,p) Geom=Check Guess=Read Stable=Opt Pop=NBO7Read Density=Current scrf=(smd,solvent=water)

mol_027_Z SP+NBO7/CMO after constrained opt at R0+0.25A  [oxime: C10=N11-O12]

1 1

$NBO CMO PRINT=2 E2PERT=0.05 BNDIDX $END

--Link1--
%chk=mol_027_Z_scan_pt6.chk
%nprocshared=10
%mem=16GB
#p wB97XD/6-311+G(d,p) opt=(ModRedundant) SCF=(Tight,XQC) NoSymm scrf=(smd,solvent=water)

mol_027_Z scan pt6 (R0+0.30A) rigid O-N displacement then constrained opt  [oxime: C10=N11-O12]

1 1
O        3.23884100      1.34956100      0.67105100
N        3.10734900      0.20500200      0.27197600
O        4.04622600     -0.54304700      0.06100600
C        1.75467100     -0.29745800      0.03343700
C        1.58783100     -1.61393600     -0.37858500
C        0.30382600     -2.09022700     -0.57427700
C       -0.80134300     -1.26660000     -0.37056800
C       -0.59385000      0.07021800      0.00780500
C        0.68810500      0.56213900      0.22633700
C       -1.81109200      0.88197700      0.19075100
N       -2.04392800      2.07709400     -0.20129700
O       -0.58440555      2.74552512     -1.03205368
C       -3.00077800      0.24061700      0.86573400
C       -2.99338500     -1.29167900      0.74233900
C       -2.21231000     -1.76242200     -0.48731300
H        2.44624400     -2.25516200     -0.52610500
H        0.15314900     -3.12061900     -0.87290400
H        0.85523500      1.57693200      0.55581700
H       -0.61490455      3.70905812     -0.88847768
H       -0.67338755      2.59431412     -1.99367868
H       -2.96078700      0.53936300      1.91686200
H       -3.90924600      0.66813600      0.43985400
H       -4.02330200     -1.64592000      0.69159100
H       -2.53768300     -1.73189200      1.63244000
H       -2.67017700     -1.36169800     -1.39904800
H       -2.22202300     -2.84986100     -0.56392400

B 11 12 F

--Link1--
%chk=mol_027_Z_scan_pt6.chk
%nprocshared=10
%mem=16GB
#p wB97XD/6-311+G(d,p) Geom=Check Guess=Read Stable=Opt Pop=NBO7Read Density=Current scrf=(smd,solvent=water)

mol_027_Z SP+NBO7/CMO after constrained opt at R0+0.30A  [oxime: C10=N11-O12]

1 1

$NBO CMO PRINT=2 E2PERT=0.05 BNDIDX $END


