24
mol_032_E_opt
O       -2.699400      2.432000     -0.461700
N       -1.022300      2.091500     -0.392900
C       -0.905600      0.854000     -0.105500
C       -2.004900     -0.127900      0.180300
C       -1.493800     -1.408100      0.817400
C       -0.316400     -1.958200      0.036700
C        0.793000     -0.957700     -0.037200
C        2.115300     -1.373200     -0.043100
C        3.139100     -0.439100     -0.111400
Br       4.927400     -1.025900     -0.116600
C        2.867000      0.928000     -0.175700
C        1.557600      1.348500     -0.174000
C        0.506800      0.420500     -0.100500
H       -2.762600      3.117900      0.230600
H       -2.732900      2.898000     -1.319300
H       -2.763100      0.350200      0.795800
H       -2.475400     -0.332400     -0.782800
H       -2.303200     -2.131800      0.845800
H       -1.194800     -1.214500      1.847800
H       -0.639100     -2.212400     -0.977700
H        0.033000     -2.884800      0.484700
H        2.349600     -2.426100      0.010200
H        3.675300      1.641400     -0.227400
H        1.349300      2.410200     -0.224200
