%chk=mol_031_Z.chk
%nprocshared=8
%mem=16GB
#p wB97XD/6-311+G(d,p) sp pop=nboread

mol_031_Z  [oxime: C3=N2-O1]

1 1
O        0.20820000      3.15180000     -0.43580000
N       -1.15290000      2.28020000      0.03940000
C       -0.84480000      1.06830000      0.27450000
C       -2.13550000      0.32530000      0.54930000
C       -2.22850000     -0.81950000     -0.44920000
C       -1.04480000     -1.76230000     -0.29620000
C        0.27280000     -1.07090000     -0.08490000
C        1.45350000     -1.80390000     -0.15420000
F        1.36880000     -3.10040000     -0.49000000
C        2.69590000     -1.26580000      0.12140000
C        2.78620000      0.06780000      0.48840000
C        1.65060000      0.84900000      0.55180000
C        0.39760000      0.29400000      0.24660000
H       -0.13780000      4.06200000     -0.37600000
H        0.33600000      2.93360000     -1.38060000
H       -2.07860000     -0.05580000      1.56930000
H       -2.98660000      0.99660000      0.49530000
H       -2.27590000     -0.41470000     -1.46080000
H       -3.15590000     -1.36520000     -0.28960000
H       -0.97660000     -2.42680000     -1.15670000
H       -1.21320000     -2.41780000      0.56240000
H        3.57570000     -1.88950000      0.06280000
H        3.74920000      0.49110000      0.73200000
H        1.73660000      1.87280000      0.88110000
$NBO E2PERT BNDIDX NBOSUM $END


