%chk=mol_004_E.chk
%nprocshared=8
%mem=16GB
#p wB97XD/6-311+G(d,p) sp pop=nboread

mol_004_E  [oxime: C3=N2-O1]

1 1
O        3.51990000     -0.79750000      0.14890000
N        1.96600000     -1.33890000     -0.03060000
C        1.20660000     -0.31210000      0.04430000
C        1.51990000      1.14590000      0.24930000
C        0.15820000      1.85730000      0.23890000
C       -0.84470000      0.76200000      0.03480000
C       -2.21620000      0.87050000     -0.04540000
C       -2.95650000     -0.29270000     -0.24100000
Cl      -4.68070000     -0.18580000     -0.34510000
C       -2.34920000     -1.54860000     -0.35630000
C       -0.97800000     -1.65900000     -0.27610000
C       -0.22910000     -0.49570000     -0.07930000
H        3.94100000     -1.15030000     -0.65920000
H        3.82970000     -1.34720000      0.89500000
H        2.18590000      1.48200000     -0.54280000
H        2.05860000      1.26440000      1.18730000
H       -0.02330000      2.38580000      1.17140000
H        0.09950000      2.59430000     -0.55820000
H       -2.71930000      1.82220000      0.03900000
H       -2.96510000     -2.42190000     -0.50760000
H       -0.52320000     -2.63470000     -0.36700000
$NBO E2PERT BNDIDX NBOSUM $END


