%chk=mol_020_E_step04_scan_pt1.chk
%nprocshared=8
%mem=16GB
#p wB97XD/6-311+G(d,p) opt=(ModRedundant) SCF=(Tight,XQC) NoSymm scrf=(smd,solvent=water)

mol_020_E_step04 scan pt1 (R0+0.04A) rigid O-N displacement then constrained opt  [oxime: C11=N12-O13]

1 1
C       -4.23499800     -0.29174700     -0.06150900
C       -2.73411900     -0.30111500     -0.00971700
C       -2.04188300     -1.49451500      0.23487500
C       -0.66221500     -1.51444700      0.26550400
C        0.06897500     -0.33626000      0.05382000
C       -0.60647800      0.87297100     -0.16721200
C       -2.00007300      0.86524600     -0.19857500
C        0.16636600      2.15085100     -0.35127700
C        1.41636000      2.13183100      0.51911700
C        2.30370400      0.94957200      0.15232500
C        1.54158400     -0.33682200      0.01289900
N        2.07046000     -1.48770800     -0.20277700
O        3.60410358     -1.32496182     -0.24799425
H       -4.62551100      0.72654600     -0.09837600
H       -4.58725900     -0.82456100     -0.95014300
H       -4.65849800     -0.79803900      0.80966500
H       -2.59717700     -2.41018000      0.40868500
H       -0.14347900     -2.44360400      0.46796100
H       -2.52237400      1.80229400     -0.36690300
H        0.45437600      2.25563400     -1.40459800
H       -0.47104000      3.00226600     -0.10615200
H        1.98818300      3.05285400      0.39393200
H        1.12577500      2.06520700      1.57208500
H        3.09801900      0.81460100      0.88909600
H        2.79492800      1.12535900     -0.81182300
H        3.97951658     -1.40261082      0.65016775
H        3.93274358     -2.08332182     -0.76341725

B 12 13 F

--Link1--
%chk=mol_020_E_step04_scan_pt1.chk
%nprocshared=8
%mem=16GB
#p wB97XD/6-311+G(d,p) Geom=Check Guess=Read Stable=Opt Pop=NBO7Read Density=Current scrf=(smd,solvent=water)

mol_020_E_step04 SP+NBO7/CMO after constrained opt at R0+0.04A  [oxime: C11=N12-O13]

1 1

$NBO CMO PRINT=2 E2PERT=0.05 BNDIDX $END

--Link1--
%chk=mol_020_E_step04_scan_pt2.chk
%nprocshared=8
%mem=16GB
#p wB97XD/6-311+G(d,p) opt=(ModRedundant) SCF=(Tight,XQC) NoSymm scrf=(smd,solvent=water)

mol_020_E_step04 scan pt2 (R0+0.08A) rigid O-N displacement then constrained opt  [oxime: C11=N12-O13]

1 1
C       -4.23499800     -0.29174700     -0.06150900
C       -2.73411900     -0.30111500     -0.00971700
C       -2.04188300     -1.49451500      0.23487500
C       -0.66221500     -1.51444700      0.26550400
C        0.06897500     -0.33626000      0.05382000
C       -0.60647800      0.87297100     -0.16721200
C       -2.00007300      0.86524600     -0.19857500
C        0.16636600      2.15085100     -0.35127700
C        1.41636000      2.13183100      0.51911700
C        2.30370400      0.94957200      0.15232500
C        1.54158400     -0.33682200      0.01289900
N        2.07046000     -1.48770800     -0.20277700
O        3.64386316     -1.32074264     -0.24916651
H       -4.62551100      0.72654600     -0.09837600
H       -4.58725900     -0.82456100     -0.95014300
H       -4.65849800     -0.79803900      0.80966500
H       -2.59717700     -2.41018000      0.40868500
H       -0.14347900     -2.44360400      0.46796100
H       -2.52237400      1.80229400     -0.36690300
H        0.45437600      2.25563400     -1.40459800
H       -0.47104000      3.00226600     -0.10615200
H        1.98818300      3.05285400      0.39393200
H        1.12577500      2.06520700      1.57208500
H        3.09801900      0.81460100      0.88909600
H        2.79492800      1.12535900     -0.81182300
H        4.01927616     -1.39839164      0.64899549
H        3.97250316     -2.07910264     -0.76458951

B 12 13 F

--Link1--
%chk=mol_020_E_step04_scan_pt2.chk
%nprocshared=8
%mem=16GB
#p wB97XD/6-311+G(d,p) Geom=Check Guess=Read Stable=Opt Pop=NBO7Read Density=Current scrf=(smd,solvent=water)

mol_020_E_step04 SP+NBO7/CMO after constrained opt at R0+0.08A  [oxime: C11=N12-O13]

1 1

$NBO CMO PRINT=2 E2PERT=0.05 BNDIDX $END

--Link1--
%chk=mol_020_E_step04_scan_pt3.chk
%nprocshared=8
%mem=16GB
#p wB97XD/6-311+G(d,p) opt=(ModRedundant) SCF=(Tight,XQC) NoSymm scrf=(smd,solvent=water)

mol_020_E_step04 scan pt3 (R0+0.12A) rigid O-N displacement then constrained opt  [oxime: C11=N12-O13]

1 1
C       -4.23499800     -0.29174700     -0.06150900
C       -2.73411900     -0.30111500     -0.00971700
C       -2.04188300     -1.49451500      0.23487500
C       -0.66221500     -1.51444700      0.26550400
C        0.06897500     -0.33626000      0.05382000
C       -0.60647800      0.87297100     -0.16721200
C       -2.00007300      0.86524600     -0.19857500
C        0.16636600      2.15085100     -0.35127700
C        1.41636000      2.13183100      0.51911700
C        2.30370400      0.94957200      0.15232500
C        1.54158400     -0.33682200      0.01289900
N        2.07046000     -1.48770800     -0.20277700
O        3.68362274     -1.31652346     -0.25033876
H       -4.62551100      0.72654600     -0.09837600
H       -4.58725900     -0.82456100     -0.95014300
H       -4.65849800     -0.79803900      0.80966500
H       -2.59717700     -2.41018000      0.40868500
H       -0.14347900     -2.44360400      0.46796100
H       -2.52237400      1.80229400     -0.36690300
H        0.45437600      2.25563400     -1.40459800
H       -0.47104000      3.00226600     -0.10615200
H        1.98818300      3.05285400      0.39393200
H        1.12577500      2.06520700      1.57208500
H        3.09801900      0.81460100      0.88909600
H        2.79492800      1.12535900     -0.81182300
H        4.05903574     -1.39417246      0.64782324
H        4.01226274     -2.07488346     -0.76576176

B 12 13 F

--Link1--
%chk=mol_020_E_step04_scan_pt3.chk
%nprocshared=8
%mem=16GB
#p wB97XD/6-311+G(d,p) Geom=Check Guess=Read Stable=Opt Pop=NBO7Read Density=Current scrf=(smd,solvent=water)

mol_020_E_step04 SP+NBO7/CMO after constrained opt at R0+0.12A  [oxime: C11=N12-O13]

1 1

$NBO CMO PRINT=2 E2PERT=0.05 BNDIDX $END

--Link1--
%chk=mol_020_E_step04_scan_pt4.chk
%nprocshared=8
%mem=16GB
#p wB97XD/6-311+G(d,p) opt=(ModRedundant) SCF=(Tight,XQC) NoSymm scrf=(smd,solvent=water)

mol_020_E_step04 scan pt4 (R0+0.16A) rigid O-N displacement then constrained opt  [oxime: C11=N12-O13]

1 1
C       -4.23499800     -0.29174700     -0.06150900
C       -2.73411900     -0.30111500     -0.00971700
C       -2.04188300     -1.49451500      0.23487500
C       -0.66221500     -1.51444700      0.26550400
C        0.06897500     -0.33626000      0.05382000
C       -0.60647800      0.87297100     -0.16721200
C       -2.00007300      0.86524600     -0.19857500
C        0.16636600      2.15085100     -0.35127700
C        1.41636000      2.13183100      0.51911700
C        2.30370400      0.94957200      0.15232500
C        1.54158400     -0.33682200      0.01289900
N        2.07046000     -1.48770800     -0.20277700
O        3.72338233     -1.31230428     -0.25151101
H       -4.62551100      0.72654600     -0.09837600
H       -4.58725900     -0.82456100     -0.95014300
H       -4.65849800     -0.79803900      0.80966500
H       -2.59717700     -2.41018000      0.40868500
H       -0.14347900     -2.44360400      0.46796100
H       -2.52237400      1.80229400     -0.36690300
H        0.45437600      2.25563400     -1.40459800
H       -0.47104000      3.00226600     -0.10615200
H        1.98818300      3.05285400      0.39393200
H        1.12577500      2.06520700      1.57208500
H        3.09801900      0.81460100      0.88909600
H        2.79492800      1.12535900     -0.81182300
H        4.09879533     -1.38995328      0.64665099
H        4.05202233     -2.07066428     -0.76693401

B 12 13 F

--Link1--
%chk=mol_020_E_step04_scan_pt4.chk
%nprocshared=8
%mem=16GB
#p wB97XD/6-311+G(d,p) Geom=Check Guess=Read Stable=Opt Pop=NBO7Read Density=Current scrf=(smd,solvent=water)

mol_020_E_step04 SP+NBO7/CMO after constrained opt at R0+0.16A  [oxime: C11=N12-O13]

1 1

$NBO CMO PRINT=2 E2PERT=0.05 BNDIDX $END

--Link1--
%chk=mol_020_E_step04_scan_pt5.chk
%nprocshared=8
%mem=16GB
#p wB97XD/6-311+G(d,p) opt=(ModRedundant) SCF=(Tight,XQC) NoSymm scrf=(smd,solvent=water)

mol_020_E_step04 scan pt5 (R0+0.20A) rigid O-N displacement then constrained opt  [oxime: C11=N12-O13]

1 1
C       -4.23499800     -0.29174700     -0.06150900
C       -2.73411900     -0.30111500     -0.00971700
C       -2.04188300     -1.49451500      0.23487500
C       -0.66221500     -1.51444700      0.26550400
C        0.06897500     -0.33626000      0.05382000
C       -0.60647800      0.87297100     -0.16721200
C       -2.00007300      0.86524600     -0.19857500
C        0.16636600      2.15085100     -0.35127700
C        1.41636000      2.13183100      0.51911700
C        2.30370400      0.94957200      0.15232500
C        1.54158400     -0.33682200      0.01289900
N        2.07046000     -1.48770800     -0.20277700
O        3.76314191     -1.30808509     -0.25268327
H       -4.62551100      0.72654600     -0.09837600
H       -4.58725900     -0.82456100     -0.95014300
H       -4.65849800     -0.79803900      0.80966500
H       -2.59717700     -2.41018000      0.40868500
H       -0.14347900     -2.44360400      0.46796100
H       -2.52237400      1.80229400     -0.36690300
H        0.45437600      2.25563400     -1.40459800
H       -0.47104000      3.00226600     -0.10615200
H        1.98818300      3.05285400      0.39393200
H        1.12577500      2.06520700      1.57208500
H        3.09801900      0.81460100      0.88909600
H        2.79492800      1.12535900     -0.81182300
H        4.13855491     -1.38573409      0.64547873
H        4.09178191     -2.06644509     -0.76810627

B 12 13 F

--Link1--
%chk=mol_020_E_step04_scan_pt5.chk
%nprocshared=8
%mem=16GB
#p wB97XD/6-311+G(d,p) Geom=Check Guess=Read Stable=Opt Pop=NBO7Read Density=Current scrf=(smd,solvent=water)

mol_020_E_step04 SP+NBO7/CMO after constrained opt at R0+0.20A  [oxime: C11=N12-O13]

1 1

$NBO CMO PRINT=2 E2PERT=0.05 BNDIDX $END

--Link1--
%chk=mol_020_E_step04_scan_pt6.chk
%nprocshared=8
%mem=16GB
#p wB97XD/6-311+G(d,p) opt=(ModRedundant) SCF=(Tight,XQC) NoSymm scrf=(smd,solvent=water)

mol_020_E_step04 scan pt6 (R0+0.24A) rigid O-N displacement then constrained opt  [oxime: C11=N12-O13]

1 1
C       -4.23499800     -0.29174700     -0.06150900
C       -2.73411900     -0.30111500     -0.00971700
C       -2.04188300     -1.49451500      0.23487500
C       -0.66221500     -1.51444700      0.26550400
C        0.06897500     -0.33626000      0.05382000
C       -0.60647800      0.87297100     -0.16721200
C       -2.00007300      0.86524600     -0.19857500
C        0.16636600      2.15085100     -0.35127700
C        1.41636000      2.13183100      0.51911700
C        2.30370400      0.94957200      0.15232500
C        1.54158400     -0.33682200      0.01289900
N        2.07046000     -1.48770800     -0.20277700
O        3.80290149     -1.30386591     -0.25385552
H       -4.62551100      0.72654600     -0.09837600
H       -4.58725900     -0.82456100     -0.95014300
H       -4.65849800     -0.79803900      0.80966500
H       -2.59717700     -2.41018000      0.40868500
H       -0.14347900     -2.44360400      0.46796100
H       -2.52237400      1.80229400     -0.36690300
H        0.45437600      2.25563400     -1.40459800
H       -0.47104000      3.00226600     -0.10615200
H        1.98818300      3.05285400      0.39393200
H        1.12577500      2.06520700      1.57208500
H        3.09801900      0.81460100      0.88909600
H        2.79492800      1.12535900     -0.81182300
H        4.17831449     -1.38151491      0.64430648
H        4.13154149     -2.06222591     -0.76927852

B 12 13 F

--Link1--
%chk=mol_020_E_step04_scan_pt6.chk
%nprocshared=8
%mem=16GB
#p wB97XD/6-311+G(d,p) Geom=Check Guess=Read Stable=Opt Pop=NBO7Read Density=Current scrf=(smd,solvent=water)

mol_020_E_step04 SP+NBO7/CMO after constrained opt at R0+0.24A  [oxime: C11=N12-O13]

1 1

$NBO CMO PRINT=2 E2PERT=0.05 BNDIDX $END


