%chk=mol_017_Z_opt.chk
%nprocshared=8
%mem=16GB
#p wB97XD/6-311+G(d,p) opt scrf=(smd,solvent=water)

mol_017_Z opt  [oxime: C3=N2-O1]

1 1
O        2.91580000     -1.17260000      0.53440000
N        2.48420000      0.48060000      0.54330000
C        1.23620000      0.58170000      0.33680000
C        0.79560000      2.04870000      0.33900000
C       -0.65190000      2.01820000     -0.19520000
C       -0.99540000      0.56940000     -0.23570000
C       -2.20950000     -0.02000000     -0.53900000
F       -3.25480000      0.75980000     -0.84110000
C       -2.35860000     -1.39580000     -0.53330000
C       -1.27580000     -2.20850000     -0.21820000
C       -0.04360000     -1.66320000      0.08630000
C        0.08730000     -0.27200000      0.06840000
H        3.57810000     -1.17670000      1.25160000
H        3.39610000     -1.25400000     -0.31220000
H        0.83900000      2.41610000      1.36070000
H        1.46380000      2.66930000     -0.24850000
H       -0.71390000      2.45720000     -1.19010000
H       -1.33760000      2.58390000      0.43150000
H       -3.32020000     -1.82450000     -0.77160000
H       -1.40630000     -3.27970000     -0.20970000
H        0.77190000     -2.31790000      0.34240000


