%chk=mol_017_Z_scan_pt1.chk
%nprocshared=8
%mem=16GB
#p wB97XD/6-311+G(d,p) opt=(ModRedundant) SCF=(Tight,XQC) NoSymm scrf=(smd,solvent=water)

mol_017_Z scan pt1 (R0+0.05A) rigid O-N displacement then constrained opt  [oxime: C3=N2-O1]

1 1
O       -3.03091858     -1.15752453      0.10821171
N       -2.77873200      0.37664200      0.03253900
C       -1.51998200      0.59083000     -0.05093200
C       -1.09767700      2.03598800     -0.16832300
C        0.42055800      2.03405900      0.07381200
C        0.78421800      0.58325900      0.01255500
C        2.04034600      0.00917800      0.03035400
F        3.12189700      0.81406800      0.09619900
C        2.21572000     -1.35823100     -0.01791300
C        1.09295300     -2.18474700     -0.08160900
C       -0.18718600     -1.65369200     -0.09375300
C       -0.32935600     -0.26275700     -0.04794500
H       -3.86902258     -1.31759353     -0.36328829
H       -3.17918058     -1.39836253      1.04316171
H       -1.32879400      2.36264600     -1.18533600
H       -1.65003300      2.67091400      0.52273700
H        0.66834200      2.44301200      1.05633400
H        0.95732200      2.62041000     -0.67294100
H        3.21682600     -1.77239600     -0.00537500
H        1.23027600     -3.25822100     -0.12171200
H       -1.04291200     -2.30943400     -0.14600800

B 2 1 F

--Link1--
%chk=mol_017_Z_scan_pt1.chk
%nprocshared=8
%mem=16GB
#p wB97XD/6-311+G(d,p) Geom=Check Guess=Read Stable=Opt Pop=NBO7Read Density=Current scrf=(smd,solvent=water)

mol_017_Z SP+NBO7/CMO after constrained opt at R0+0.05A  [oxime: C3=N2-O1]

1 1

$NBO CMO PRINT=2 E2PERT=0.05 BNDIDX $END

--Link1--
%chk=mol_017_Z_scan_pt2.chk
%nprocshared=8
%mem=16GB
#p wB97XD/6-311+G(d,p) opt=(ModRedundant) SCF=(Tight,XQC) NoSymm scrf=(smd,solvent=water)

mol_017_Z scan pt2 (R0+0.10A) rigid O-N displacement then constrained opt  [oxime: C3=N2-O1]

1 1
O       -3.03901916     -1.20680406      0.11064242
N       -2.77873200      0.37664200      0.03253900
C       -1.51998200      0.59083000     -0.05093200
C       -1.09767700      2.03598800     -0.16832300
C        0.42055800      2.03405900      0.07381200
C        0.78421800      0.58325900      0.01255500
C        2.04034600      0.00917800      0.03035400
F        3.12189700      0.81406800      0.09619900
C        2.21572000     -1.35823100     -0.01791300
C        1.09295300     -2.18474700     -0.08160900
C       -0.18718600     -1.65369200     -0.09375300
C       -0.32935600     -0.26275700     -0.04794500
H       -3.87712316     -1.36687306     -0.36085758
H       -3.18728116     -1.44764206      1.04559242
H       -1.32879400      2.36264600     -1.18533600
H       -1.65003300      2.67091400      0.52273700
H        0.66834200      2.44301200      1.05633400
H        0.95732200      2.62041000     -0.67294100
H        3.21682600     -1.77239600     -0.00537500
H        1.23027600     -3.25822100     -0.12171200
H       -1.04291200     -2.30943400     -0.14600800

B 2 1 F

--Link1--
%chk=mol_017_Z_scan_pt2.chk
%nprocshared=8
%mem=16GB
#p wB97XD/6-311+G(d,p) Geom=Check Guess=Read Stable=Opt Pop=NBO7Read Density=Current scrf=(smd,solvent=water)

mol_017_Z SP+NBO7/CMO after constrained opt at R0+0.10A  [oxime: C3=N2-O1]

1 1

$NBO CMO PRINT=2 E2PERT=0.05 BNDIDX $END

--Link1--
%chk=mol_017_Z_scan_pt3.chk
%nprocshared=8
%mem=16GB
#p wB97XD/6-311+G(d,p) opt=(ModRedundant) SCF=(Tight,XQC) NoSymm scrf=(smd,solvent=water)

mol_017_Z scan pt3 (R0+0.15A) rigid O-N displacement then constrained opt  [oxime: C3=N2-O1]

1 1
O       -3.04711974     -1.25608360      0.11307313
N       -2.77873200      0.37664200      0.03253900
C       -1.51998200      0.59083000     -0.05093200
C       -1.09767700      2.03598800     -0.16832300
C        0.42055800      2.03405900      0.07381200
C        0.78421800      0.58325900      0.01255500
C        2.04034600      0.00917800      0.03035400
F        3.12189700      0.81406800      0.09619900
C        2.21572000     -1.35823100     -0.01791300
C        1.09295300     -2.18474700     -0.08160900
C       -0.18718600     -1.65369200     -0.09375300
C       -0.32935600     -0.26275700     -0.04794500
H       -3.88522374     -1.41615260     -0.35842687
H       -3.19538174     -1.49692160      1.04802313
H       -1.32879400      2.36264600     -1.18533600
H       -1.65003300      2.67091400      0.52273700
H        0.66834200      2.44301200      1.05633400
H        0.95732200      2.62041000     -0.67294100
H        3.21682600     -1.77239600     -0.00537500
H        1.23027600     -3.25822100     -0.12171200
H       -1.04291200     -2.30943400     -0.14600800

B 2 1 F

--Link1--
%chk=mol_017_Z_scan_pt3.chk
%nprocshared=8
%mem=16GB
#p wB97XD/6-311+G(d,p) Geom=Check Guess=Read Stable=Opt Pop=NBO7Read Density=Current scrf=(smd,solvent=water)

mol_017_Z SP+NBO7/CMO after constrained opt at R0+0.15A  [oxime: C3=N2-O1]

1 1

$NBO CMO PRINT=2 E2PERT=0.05 BNDIDX $END

--Link1--
%chk=mol_017_Z_scan_pt4.chk
%nprocshared=8
%mem=16GB
#p wB97XD/6-311+G(d,p) opt=(ModRedundant) SCF=(Tight,XQC) NoSymm scrf=(smd,solvent=water)

mol_017_Z scan pt4 (R0+0.20A) rigid O-N displacement then constrained opt  [oxime: C3=N2-O1]

1 1
O       -3.05522031     -1.30536313      0.11550384
N       -2.77873200      0.37664200      0.03253900
C       -1.51998200      0.59083000     -0.05093200
C       -1.09767700      2.03598800     -0.16832300
C        0.42055800      2.03405900      0.07381200
C        0.78421800      0.58325900      0.01255500
C        2.04034600      0.00917800      0.03035400
F        3.12189700      0.81406800      0.09619900
C        2.21572000     -1.35823100     -0.01791300
C        1.09295300     -2.18474700     -0.08160900
C       -0.18718600     -1.65369200     -0.09375300
C       -0.32935600     -0.26275700     -0.04794500
H       -3.89332431     -1.46543213     -0.35599616
H       -3.20348231     -1.54620113      1.05045384
H       -1.32879400      2.36264600     -1.18533600
H       -1.65003300      2.67091400      0.52273700
H        0.66834200      2.44301200      1.05633400
H        0.95732200      2.62041000     -0.67294100
H        3.21682600     -1.77239600     -0.00537500
H        1.23027600     -3.25822100     -0.12171200
H       -1.04291200     -2.30943400     -0.14600800

B 2 1 F

--Link1--
%chk=mol_017_Z_scan_pt4.chk
%nprocshared=8
%mem=16GB
#p wB97XD/6-311+G(d,p) Geom=Check Guess=Read Stable=Opt Pop=NBO7Read Density=Current scrf=(smd,solvent=water)

mol_017_Z SP+NBO7/CMO after constrained opt at R0+0.20A  [oxime: C3=N2-O1]

1 1

$NBO CMO PRINT=2 E2PERT=0.05 BNDIDX $END

--Link1--
%chk=mol_017_Z_scan_pt5.chk
%nprocshared=8
%mem=16GB
#p wB97XD/6-311+G(d,p) opt=(ModRedundant) SCF=(Tight,XQC) NoSymm scrf=(smd,solvent=water)

mol_017_Z scan pt5 (R0+0.25A) rigid O-N displacement then constrained opt  [oxime: C3=N2-O1]

1 1
O       -3.06332089     -1.35464266      0.11793456
N       -2.77873200      0.37664200      0.03253900
C       -1.51998200      0.59083000     -0.05093200
C       -1.09767700      2.03598800     -0.16832300
C        0.42055800      2.03405900      0.07381200
C        0.78421800      0.58325900      0.01255500
C        2.04034600      0.00917800      0.03035400
F        3.12189700      0.81406800      0.09619900
C        2.21572000     -1.35823100     -0.01791300
C        1.09295300     -2.18474700     -0.08160900
C       -0.18718600     -1.65369200     -0.09375300
C       -0.32935600     -0.26275700     -0.04794500
H       -3.90142489     -1.51471166     -0.35356544
H       -3.21158289     -1.59548066      1.05288456
H       -1.32879400      2.36264600     -1.18533600
H       -1.65003300      2.67091400      0.52273700
H        0.66834200      2.44301200      1.05633400
H        0.95732200      2.62041000     -0.67294100
H        3.21682600     -1.77239600     -0.00537500
H        1.23027600     -3.25822100     -0.12171200
H       -1.04291200     -2.30943400     -0.14600800

B 2 1 F

--Link1--
%chk=mol_017_Z_scan_pt5.chk
%nprocshared=8
%mem=16GB
#p wB97XD/6-311+G(d,p) Geom=Check Guess=Read Stable=Opt Pop=NBO7Read Density=Current scrf=(smd,solvent=water)

mol_017_Z SP+NBO7/CMO after constrained opt at R0+0.25A  [oxime: C3=N2-O1]

1 1

$NBO CMO PRINT=2 E2PERT=0.05 BNDIDX $END

--Link1--
%chk=mol_017_Z_scan_pt6.chk
%nprocshared=8
%mem=16GB
#p wB97XD/6-311+G(d,p) opt=(ModRedundant) SCF=(Tight,XQC) NoSymm scrf=(smd,solvent=water)

mol_017_Z scan pt6 (R0+0.30A) rigid O-N displacement then constrained opt  [oxime: C3=N2-O1]

1 1
O       -3.07142147     -1.40392219      0.12036527
N       -2.77873200      0.37664200      0.03253900
C       -1.51998200      0.59083000     -0.05093200
C       -1.09767700      2.03598800     -0.16832300
C        0.42055800      2.03405900      0.07381200
C        0.78421800      0.58325900      0.01255500
C        2.04034600      0.00917800      0.03035400
F        3.12189700      0.81406800      0.09619900
C        2.21572000     -1.35823100     -0.01791300
C        1.09295300     -2.18474700     -0.08160900
C       -0.18718600     -1.65369200     -0.09375300
C       -0.32935600     -0.26275700     -0.04794500
H       -3.90952547     -1.56399119     -0.35113473
H       -3.21968347     -1.64476019      1.05531527
H       -1.32879400      2.36264600     -1.18533600
H       -1.65003300      2.67091400      0.52273700
H        0.66834200      2.44301200      1.05633400
H        0.95732200      2.62041000     -0.67294100
H        3.21682600     -1.77239600     -0.00537500
H        1.23027600     -3.25822100     -0.12171200
H       -1.04291200     -2.30943400     -0.14600800

B 2 1 F

--Link1--
%chk=mol_017_Z_scan_pt6.chk
%nprocshared=8
%mem=16GB
#p wB97XD/6-311+G(d,p) Geom=Check Guess=Read Stable=Opt Pop=NBO7Read Density=Current scrf=(smd,solvent=water)

mol_017_Z SP+NBO7/CMO after constrained opt at R0+0.30A  [oxime: C3=N2-O1]

1 1

$NBO CMO PRINT=2 E2PERT=0.05 BNDIDX $END


