%chk=mol_029_Z.chk
%nprocshared=8
%mem=16GB
#p wB97XD/6-311+G(d,p) sp pop=nbo7read

mol_029_Z  [oxime: C3=N2-O1]

1 1
O        1.29890000     -2.63730000      1.13090000
N       -0.17630000     -2.50300000      0.51840000
C       -0.40490000     -1.31590000      0.10420000
C       -1.89840000     -1.20590000     -0.18820000
C       -2.36640000      0.23800000     -0.33300000
C       -1.57740000      1.16830000      0.57930000
C       -0.13050000      1.11720000      0.20210000
C        0.65450000      2.25340000      0.07720000
C        1.96400000      2.16780000     -0.37380000
C        2.52280000      0.94500000     -0.72680000
C        1.73870000     -0.17060000     -0.58780000
F        2.26220000     -1.38520000     -0.98440000
C        0.43340000     -0.14340000     -0.09300000
H        1.91010000     -2.49800000      0.35990000
H        1.29860000     -3.58160000      1.38340000
H       -2.42030000     -1.72860000      0.61320000
H       -2.09650000     -1.77310000     -1.09880000
H       -3.42800000      0.28780000     -0.10410000
H       -2.24480000      0.56620000     -1.36580000
H       -1.95820000      2.18420000      0.50610000
H       -1.70750000      0.86520000      1.62190000
H        0.23020000      3.21770000      0.32090000
H        2.56270000      3.06200000     -0.46360000
H        3.53330000      0.86970000     -1.09780000
$NBO E2PERT BNDIDX NBOSUM CMO $END


