%chk=mol_015_Z.chk
%nprocshared=8
%mem=16GB
#p wB97XD/6-311+G(d,p) sp pop=nboread

mol_015_Z  [oxime: C10=N11-O12]

1 1
C        2.99850000      0.86330000     -0.18680000
C        1.83020000     -0.05750000     -0.05200000
C        1.98000000     -1.43740000      0.05460000
C        0.89710000     -2.30430000      0.18320000
C       -0.39240000     -1.81820000      0.20470000
C       -0.56680000     -0.43510000      0.09190000
C        0.52890000      0.43640000     -0.02430000
C        0.11770000      1.86640000     -0.11640000
C       -1.41630000      1.85150000      0.03990000
C       -1.77910000      0.36250000      0.07150000
N       -3.03620000      0.20930000      0.05270000
O       -3.38250000     -1.48370000      0.09000000
H        3.03810000      1.56920000      0.64290000
H        2.93360000      1.45170000     -1.10210000
H        3.93430000      0.31500000     -0.20600000
H        2.97890000     -1.85040000      0.03880000
H        1.07270000     -3.36600000      0.26950000
H       -1.21580000     -2.50420000      0.31970000
H        0.59850000      2.47340000      0.64880000
H        0.41830000      2.29700000     -1.07130000
H       -1.73930000      2.30840000      0.97080000
H       -1.93900000      2.36110000     -0.76320000
H       -4.16980000     -1.47100000      0.66580000
H       -3.69000000     -1.63780000     -0.82310000
$NBO E2PERT BNDIDX NBOSUM $END


