%chk=mol_006_E.chk
%nprocshared=8
%mem=16GB
#p wB97XD/6-311+G(d,p) sp pop=nboread

mol_006_E  [oxime: C10=N11-O12]

1 1
C        3.88460000     -0.07800000     -0.20730000
C        2.40890000      0.09240000     -0.09360000
C        1.88060000      1.28370000      0.43510000
C        0.52150000      1.48550000      0.55220000
C       -0.32870000      0.46050000      0.12600000
C        0.17610000     -0.73490000     -0.40680000
C        1.54050000     -0.91450000     -0.51370000
C       -0.92040000     -1.68030000     -0.79570000
C       -2.22000000     -0.94640000     -0.43310000
C       -1.77840000      0.37970000      0.13060000
N       -2.44680000      1.37210000      0.58200000
O       -4.05340000      0.95850000      0.45430000
H        4.15300000     -1.07780000     -0.53260000
H        4.37830000      0.11540000      0.74440000
H        4.29990000      0.63030000     -0.92540000
H        2.56640000      2.05600000      0.75640000
H        0.15010000      2.41410000      0.96370000
H        1.94300000     -1.83150000     -0.92020000
H       -0.83480000     -2.62390000     -0.26270000
H       -0.87960000     -1.91340000     -1.85690000
H       -2.81420000     -1.46790000      0.31450000
H       -2.86910000     -0.77160000     -1.28870000
H       -4.35580000      1.08760000      1.37410000
H       -4.40150000      1.70470000     -0.07120000
$NBO E2PERT BNDIDX NBOSUM $END


