%chk=mol_006_E_rigidscan_scan_pt1.chk
%nprocshared=8
%mem=16GB
#p wB97XD/6-311+G(d,p) opt=(ModRedundant) SCF=(Tight,XQC) NoSymm scrf=(smd,solvent=water)

mol_006_E_rigidscan scan pt1 (R0+0.1A) rigid O-N displacement then constrained opt  [oxime: C10=N11-O12]

1 1
C        4.09791300     -0.09575600      0.01178100
C        2.59718100     -0.15982000     -0.00169200
C        1.95503000     -1.41313500     -0.00288100
C        0.57829600     -1.51548400     -0.00427000
C       -0.17150400     -0.33564100     -0.00537300
C        0.44349600      0.91522500     -0.00536600
C        1.83131600      1.00303600     -0.00407800
C       -0.56183400      2.03196600     -0.00768400
C       -1.92963500      1.32341000      0.00426700
C       -1.61546500     -0.14481200     -0.00437300
N       -2.40175600     -1.15732900     -0.00942100
O       -3.90696322     -0.58389230      0.00358759
H        4.45358600      0.93041700     -0.09228200
H        4.51824900     -0.69531300     -0.80000900
H        4.48819100     -0.50133100      0.95003200
H        2.56054200     -2.31332100     -0.00243000
H        0.09548800     -2.48559800     -0.00462500
H        2.31835800      1.97269800     -0.00494900
H       -0.44369900      2.65951700     -0.89349100
H       -0.43426900      2.67441700      0.86584300
H       -2.54204200      1.56710900     -0.86599700
H       -2.52039800      1.56076900      0.89132600
H       -4.38987922     -1.02433230     -0.71991441
H       -4.31934522     -0.87052330      0.83982859

B 11 12 F

--Link1--
%chk=mol_006_E_rigidscan_scan_pt1.chk
%nprocshared=8
%mem=16GB
#p wB97XD/6-311+G(d,p) Geom=Check Guess=Read Stable=Opt Pop=NBO7Read Density=Current scrf=(smd,solvent=water)

mol_006_E_rigidscan SP+NBO7/CMO after constrained opt at R0+0.1A  [oxime: C10=N11-O12]

1 1

$NBO CMO PRINT=2 E2PERT=0.05 BNDIDX $END

--Link1--
%chk=mol_006_E_rigidscan_scan_pt2.chk
%nprocshared=8
%mem=16GB
#p wB97XD/6-311+G(d,p) opt=(ModRedundant) SCF=(Tight,XQC) NoSymm scrf=(smd,solvent=water)

mol_006_E_rigidscan scan pt2 (R0+0.2A) rigid O-N displacement then constrained opt  [oxime: C10=N11-O12]

1 1
C        4.09791300     -0.09575600      0.01178100
C        2.59718100     -0.15982000     -0.00169200
C        1.95503000     -1.41313500     -0.00288100
C        0.57829600     -1.51548400     -0.00427000
C       -0.17150400     -0.33564100     -0.00537300
C        0.44349600      0.91522500     -0.00536600
C        1.83131600      1.00303600     -0.00407800
C       -0.56183400      2.03196600     -0.00768400
C       -1.92963500      1.32341000      0.00426700
C       -1.61546500     -0.14481200     -0.00437300
N       -2.40175600     -1.15732900     -0.00942100
O       -4.00040844     -0.54829261      0.00439518
H        4.45358600      0.93041700     -0.09228200
H        4.51824900     -0.69531300     -0.80000900
H        4.48819100     -0.50133100      0.95003200
H        2.56054200     -2.31332100     -0.00243000
H        0.09548800     -2.48559800     -0.00462500
H        2.31835800      1.97269800     -0.00494900
H       -0.44369900      2.65951700     -0.89349100
H       -0.43426900      2.67441700      0.86584300
H       -2.54204200      1.56710900     -0.86599700
H       -2.52039800      1.56076900      0.89132600
H       -4.48332444     -0.98873261     -0.71910682
H       -4.41279044     -0.83492361      0.84063618

B 11 12 F

--Link1--
%chk=mol_006_E_rigidscan_scan_pt2.chk
%nprocshared=8
%mem=16GB
#p wB97XD/6-311+G(d,p) Geom=Check Guess=Read Stable=Opt Pop=NBO7Read Density=Current scrf=(smd,solvent=water)

mol_006_E_rigidscan SP+NBO7/CMO after constrained opt at R0+0.2A  [oxime: C10=N11-O12]

1 1

$NBO CMO PRINT=2 E2PERT=0.05 BNDIDX $END

--Link1--
%chk=mol_006_E_rigidscan_scan_pt3.chk
%nprocshared=8
%mem=16GB
#p wB97XD/6-311+G(d,p) opt=(ModRedundant) SCF=(Tight,XQC) NoSymm scrf=(smd,solvent=water)

mol_006_E_rigidscan scan pt3 (R0+0.3A) rigid O-N displacement then constrained opt  [oxime: C10=N11-O12]

1 1
C        4.09791300     -0.09575600      0.01178100
C        2.59718100     -0.15982000     -0.00169200
C        1.95503000     -1.41313500     -0.00288100
C        0.57829600     -1.51548400     -0.00427000
C       -0.17150400     -0.33564100     -0.00537300
C        0.44349600      0.91522500     -0.00536600
C        1.83131600      1.00303600     -0.00407800
C       -0.56183400      2.03196600     -0.00768400
C       -1.92963500      1.32341000      0.00426700
C       -1.61546500     -0.14481200     -0.00437300
N       -2.40175600     -1.15732900     -0.00942100
O       -4.09385367     -0.51269291      0.00520277
H        4.45358600      0.93041700     -0.09228200
H        4.51824900     -0.69531300     -0.80000900
H        4.48819100     -0.50133100      0.95003200
H        2.56054200     -2.31332100     -0.00243000
H        0.09548800     -2.48559800     -0.00462500
H        2.31835800      1.97269800     -0.00494900
H       -0.44369900      2.65951700     -0.89349100
H       -0.43426900      2.67441700      0.86584300
H       -2.54204200      1.56710900     -0.86599700
H       -2.52039800      1.56076900      0.89132600
H       -4.57676967     -0.95313291     -0.71829923
H       -4.50623567     -0.79932391      0.84144377

B 11 12 F

--Link1--
%chk=mol_006_E_rigidscan_scan_pt3.chk
%nprocshared=8
%mem=16GB
#p wB97XD/6-311+G(d,p) Geom=Check Guess=Read Stable=Opt Pop=NBO7Read Density=Current scrf=(smd,solvent=water)

mol_006_E_rigidscan SP+NBO7/CMO after constrained opt at R0+0.3A  [oxime: C10=N11-O12]

1 1

$NBO CMO PRINT=2 E2PERT=0.05 BNDIDX $END

--Link1--
%chk=mol_006_E_rigidscan_scan_pt4.chk
%nprocshared=8
%mem=16GB
#p wB97XD/6-311+G(d,p) opt=(ModRedundant) SCF=(Tight,XQC) NoSymm scrf=(smd,solvent=water)

mol_006_E_rigidscan scan pt4 (R0+0.4A) rigid O-N displacement then constrained opt  [oxime: C10=N11-O12]

1 1
C        4.09791300     -0.09575600      0.01178100
C        2.59718100     -0.15982000     -0.00169200
C        1.95503000     -1.41313500     -0.00288100
C        0.57829600     -1.51548400     -0.00427000
C       -0.17150400     -0.33564100     -0.00537300
C        0.44349600      0.91522500     -0.00536600
C        1.83131600      1.00303600     -0.00407800
C       -0.56183400      2.03196600     -0.00768400
C       -1.92963500      1.32341000      0.00426700
C       -1.61546500     -0.14481200     -0.00437300
N       -2.40175600     -1.15732900     -0.00942100
O       -4.18729889     -0.47709322      0.00601036
H        4.45358600      0.93041700     -0.09228200
H        4.51824900     -0.69531300     -0.80000900
H        4.48819100     -0.50133100      0.95003200
H        2.56054200     -2.31332100     -0.00243000
H        0.09548800     -2.48559800     -0.00462500
H        2.31835800      1.97269800     -0.00494900
H       -0.44369900      2.65951700     -0.89349100
H       -0.43426900      2.67441700      0.86584300
H       -2.54204200      1.56710900     -0.86599700
H       -2.52039800      1.56076900      0.89132600
H       -4.67021489     -0.91753322     -0.71749164
H       -4.59968089     -0.76372422      0.84225136

B 11 12 F

--Link1--
%chk=mol_006_E_rigidscan_scan_pt4.chk
%nprocshared=8
%mem=16GB
#p wB97XD/6-311+G(d,p) Geom=Check Guess=Read Stable=Opt Pop=NBO7Read Density=Current scrf=(smd,solvent=water)

mol_006_E_rigidscan SP+NBO7/CMO after constrained opt at R0+0.4A  [oxime: C10=N11-O12]

1 1

$NBO CMO PRINT=2 E2PERT=0.05 BNDIDX $END


