25
mol_002_E_opt
C       -4.239000      0.544900     -0.008400
O       -3.465900     -0.643500      0.184800
C       -2.136100     -0.566000      0.095900
C       -1.447300     -1.783100      0.302100
C       -0.078500     -1.831700      0.235600
C        0.617100     -0.643900     -0.042300
C       -0.064500      0.566400     -0.247700
C       -1.439200      0.616800     -0.180200
C        0.881100      1.694600     -0.529500
C        2.277700      1.058900     -0.479300
C        2.034800     -0.400300     -0.171700
N        2.849200     -1.376600     -0.021300
O        4.393700     -0.733100     -0.240800
H       -5.271400      0.240000      0.106700
H       -4.082200      0.946300     -1.008500
H       -3.988500      1.291800      0.743600
H       -2.039900     -2.661800      0.511600
H        0.425700     -2.774500      0.397200
H       -1.961200      1.546900     -0.337300
H        0.679500      2.138600     -1.500500
H        0.775600      2.485500      0.207900
H        2.915300      1.484400      0.292500
H        2.820000      1.140100     -1.418600
H        4.816500     -1.014900      0.592800
H        4.727500     -1.325600     -0.941300
