25
mol_002_Z_opt
C        4.129000     -0.174300     -0.010100
O        3.193800      0.804700     -0.477700
C        1.888600      0.569800     -0.340700
C        1.041300      1.588300     -0.829000
C       -0.316200      1.456500     -0.740100
C       -0.853600      0.295800     -0.155800
C       -0.004000     -0.719400      0.324500
C        1.362900     -0.589000      0.236300
C       -0.764400     -1.862100      0.911100
C       -2.245900     -1.536600      0.628300
C       -2.215100     -0.107100      0.062000
N       -3.397500      0.344400     -0.046200
O       -3.296200      1.951700     -0.698700
H        3.995100     -1.115000     -0.543000
H        5.108900      0.234800     -0.225000
H        4.017700     -0.325800      1.062900
H        1.500300      2.459100     -1.272400
H       -0.932600      2.248100     -1.135600
H        2.009700     -1.367900      0.604700
H       -0.460600     -2.811200      0.477100
H       -0.577600     -1.935900      1.980800
H       -2.875500     -1.595500      1.510300
H       -2.673800     -2.199000     -0.119100
H       -3.561700      2.472600      0.082200
H       -4.073200      1.912800     -1.286900
