%chk=mol_023_E_scan_pt1.chk
%nprocshared=8
%mem=16GB
#p wB97XD/6-311+G(d,p) opt=(ModRedundant) SCF=(Tight,XQC) NoSymm scrf=(smd,solvent=water)

mol_023_E scan pt1 (R0+0.05A) rigid O-N displacement then constrained opt  [oxime: C13=N14-O15]

1 1
O       -4.07823600      0.87667900     -0.41389900
N       -3.55221500     -0.15395700     -0.03413700
O       -4.17637200     -1.13895600      0.31708300
C       -2.08464100     -0.21476900     -0.00067200
C       -1.47686200     -1.44205200      0.22152200
C       -0.09634800     -1.48517700      0.24270800
C        0.65017300     -0.31859500      0.04745000
C        0.01774600      0.91843900     -0.14611300
C       -1.37250000      0.95739500     -0.17601900
C        0.83250000      2.17356000     -0.29244200
C        2.06193400      2.09468600      0.60494500
C        2.92607300      0.89946400      0.22342500
C        2.13136500     -0.35387600      0.00704200
N        2.61315500     -1.50475400     -0.28341900
O        4.15318222     -1.40361794     -0.32958395
H       -2.06626900     -2.33578300      0.37127100
H        0.40231500     -2.42864200      0.42135000
H       -1.88680300      1.89837500     -0.32159400
H        1.14417500      2.28422600     -1.33786100
H        0.21652800      3.03896900     -0.04405300
H        2.65965800      3.00281500      0.51625900
H        1.74564500      2.00820100      1.64867300
H        3.68814700      0.70723200      0.98209100
H        3.45723500      1.09381000     -0.71549200
H        4.53089022     -1.50796894      0.56602105
H        4.45538122     -2.16479894     -0.85859895

B 14 15 F

--Link1--
%chk=mol_023_E_scan_pt1.chk
%nprocshared=8
%mem=16GB
#p wB97XD/6-311+G(d,p) Geom=Check Guess=Read Stable=Opt Pop=NBO7Read Density=Current scrf=(smd,solvent=water)

mol_023_E SP+NBO7/CMO after constrained opt at R0+0.05A  [oxime: C13=N14-O15]

1 1

$NBO CMO PRINT=2 E2PERT=0.05 BNDIDX $END

--Link1--
%chk=mol_023_E_scan_pt2.chk
%nprocshared=8
%mem=16GB
#p wB97XD/6-311+G(d,p) opt=(ModRedundant) SCF=(Tight,XQC) NoSymm scrf=(smd,solvent=water)

mol_023_E scan pt2 (R0+0.10A) rigid O-N displacement then constrained opt  [oxime: C13=N14-O15]

1 1
O       -4.07823600      0.87667900     -0.41389900
N       -3.55221500     -0.15395700     -0.03413700
O       -4.17637200     -1.13895600      0.31708300
C       -2.08464100     -0.21476900     -0.00067200
C       -1.47686200     -1.44205200      0.22152200
C       -0.09634800     -1.48517700      0.24270800
C        0.65017300     -0.31859500      0.04745000
C        0.01774600      0.91843900     -0.14611300
C       -1.37250000      0.95739500     -0.17601900
C        0.83250000      2.17356000     -0.29244200
C        2.06193400      2.09468600      0.60494500
C        2.92607300      0.89946400      0.22342500
C        2.13136500     -0.35387600      0.00704200
N        2.61315500     -1.50475400     -0.28341900
O        4.20305245     -1.40034288     -0.33107889
H       -2.06626900     -2.33578300      0.37127100
H        0.40231500     -2.42864200      0.42135000
H       -1.88680300      1.89837500     -0.32159400
H        1.14417500      2.28422600     -1.33786100
H        0.21652800      3.03896900     -0.04405300
H        2.65965800      3.00281500      0.51625900
H        1.74564500      2.00820100      1.64867300
H        3.68814700      0.70723200      0.98209100
H        3.45723500      1.09381000     -0.71549200
H        4.58076045     -1.50469388      0.56452611
H        4.50525145     -2.16152388     -0.86009389

B 14 15 F

--Link1--
%chk=mol_023_E_scan_pt2.chk
%nprocshared=8
%mem=16GB
#p wB97XD/6-311+G(d,p) Geom=Check Guess=Read Stable=Opt Pop=NBO7Read Density=Current scrf=(smd,solvent=water)

mol_023_E SP+NBO7/CMO after constrained opt at R0+0.10A  [oxime: C13=N14-O15]

1 1

$NBO CMO PRINT=2 E2PERT=0.05 BNDIDX $END

--Link1--
%chk=mol_023_E_scan_pt3.chk
%nprocshared=8
%mem=16GB
#p wB97XD/6-311+G(d,p) opt=(ModRedundant) SCF=(Tight,XQC) NoSymm scrf=(smd,solvent=water)

mol_023_E scan pt3 (R0+0.15A) rigid O-N displacement then constrained opt  [oxime: C13=N14-O15]

1 1
O       -4.07823600      0.87667900     -0.41389900
N       -3.55221500     -0.15395700     -0.03413700
O       -4.17637200     -1.13895600      0.31708300
C       -2.08464100     -0.21476900     -0.00067200
C       -1.47686200     -1.44205200      0.22152200
C       -0.09634800     -1.48517700      0.24270800
C        0.65017300     -0.31859500      0.04745000
C        0.01774600      0.91843900     -0.14611300
C       -1.37250000      0.95739500     -0.17601900
C        0.83250000      2.17356000     -0.29244200
C        2.06193400      2.09468600      0.60494500
C        2.92607300      0.89946400      0.22342500
C        2.13136500     -0.35387600      0.00704200
N        2.61315500     -1.50475400     -0.28341900
O        4.25292267     -1.39706783     -0.33257384
H       -2.06626900     -2.33578300      0.37127100
H        0.40231500     -2.42864200      0.42135000
H       -1.88680300      1.89837500     -0.32159400
H        1.14417500      2.28422600     -1.33786100
H        0.21652800      3.03896900     -0.04405300
H        2.65965800      3.00281500      0.51625900
H        1.74564500      2.00820100      1.64867300
H        3.68814700      0.70723200      0.98209100
H        3.45723500      1.09381000     -0.71549200
H        4.63063067     -1.50141883      0.56303116
H        4.55512167     -2.15824883     -0.86158884

B 14 15 F

--Link1--
%chk=mol_023_E_scan_pt3.chk
%nprocshared=8
%mem=16GB
#p wB97XD/6-311+G(d,p) Geom=Check Guess=Read Stable=Opt Pop=NBO7Read Density=Current scrf=(smd,solvent=water)

mol_023_E SP+NBO7/CMO after constrained opt at R0+0.15A  [oxime: C13=N14-O15]

1 1

$NBO CMO PRINT=2 E2PERT=0.05 BNDIDX $END

--Link1--
%chk=mol_023_E_scan_pt4.chk
%nprocshared=8
%mem=16GB
#p wB97XD/6-311+G(d,p) opt=(ModRedundant) SCF=(Tight,XQC) NoSymm scrf=(smd,solvent=water)

mol_023_E scan pt4 (R0+0.20A) rigid O-N displacement then constrained opt  [oxime: C13=N14-O15]

1 1
O       -4.07823600      0.87667900     -0.41389900
N       -3.55221500     -0.15395700     -0.03413700
O       -4.17637200     -1.13895600      0.31708300
C       -2.08464100     -0.21476900     -0.00067200
C       -1.47686200     -1.44205200      0.22152200
C       -0.09634800     -1.48517700      0.24270800
C        0.65017300     -0.31859500      0.04745000
C        0.01774600      0.91843900     -0.14611300
C       -1.37250000      0.95739500     -0.17601900
C        0.83250000      2.17356000     -0.29244200
C        2.06193400      2.09468600      0.60494500
C        2.92607300      0.89946400      0.22342500
C        2.13136500     -0.35387600      0.00704200
N        2.61315500     -1.50475400     -0.28341900
O        4.30279289     -1.39379277     -0.33406878
H       -2.06626900     -2.33578300      0.37127100
H        0.40231500     -2.42864200      0.42135000
H       -1.88680300      1.89837500     -0.32159400
H        1.14417500      2.28422600     -1.33786100
H        0.21652800      3.03896900     -0.04405300
H        2.65965800      3.00281500      0.51625900
H        1.74564500      2.00820100      1.64867300
H        3.68814700      0.70723200      0.98209100
H        3.45723500      1.09381000     -0.71549200
H        4.68050089     -1.49814377      0.56153622
H        4.60499189     -2.15497377     -0.86308378

B 14 15 F

--Link1--
%chk=mol_023_E_scan_pt4.chk
%nprocshared=8
%mem=16GB
#p wB97XD/6-311+G(d,p) Geom=Check Guess=Read Stable=Opt Pop=NBO7Read Density=Current scrf=(smd,solvent=water)

mol_023_E SP+NBO7/CMO after constrained opt at R0+0.20A  [oxime: C13=N14-O15]

1 1

$NBO CMO PRINT=2 E2PERT=0.05 BNDIDX $END

--Link1--
%chk=mol_023_E_scan_pt5.chk
%nprocshared=8
%mem=16GB
#p wB97XD/6-311+G(d,p) opt=(ModRedundant) SCF=(Tight,XQC) NoSymm scrf=(smd,solvent=water)

mol_023_E scan pt5 (R0+0.25A) rigid O-N displacement then constrained opt  [oxime: C13=N14-O15]

1 1
O       -4.07823600      0.87667900     -0.41389900
N       -3.55221500     -0.15395700     -0.03413700
O       -4.17637200     -1.13895600      0.31708300
C       -2.08464100     -0.21476900     -0.00067200
C       -1.47686200     -1.44205200      0.22152200
C       -0.09634800     -1.48517700      0.24270800
C        0.65017300     -0.31859500      0.04745000
C        0.01774600      0.91843900     -0.14611300
C       -1.37250000      0.95739500     -0.17601900
C        0.83250000      2.17356000     -0.29244200
C        2.06193400      2.09468600      0.60494500
C        2.92607300      0.89946400      0.22342500
C        2.13136500     -0.35387600      0.00704200
N        2.61315500     -1.50475400     -0.28341900
O        4.35266311     -1.39051771     -0.33556373
H       -2.06626900     -2.33578300      0.37127100
H        0.40231500     -2.42864200      0.42135000
H       -1.88680300      1.89837500     -0.32159400
H        1.14417500      2.28422600     -1.33786100
H        0.21652800      3.03896900     -0.04405300
H        2.65965800      3.00281500      0.51625900
H        1.74564500      2.00820100      1.64867300
H        3.68814700      0.70723200      0.98209100
H        3.45723500      1.09381000     -0.71549200
H        4.73037111     -1.49486871      0.56004127
H        4.65486211     -2.15169871     -0.86457873

B 14 15 F

--Link1--
%chk=mol_023_E_scan_pt5.chk
%nprocshared=8
%mem=16GB
#p wB97XD/6-311+G(d,p) Geom=Check Guess=Read Stable=Opt Pop=NBO7Read Density=Current scrf=(smd,solvent=water)

mol_023_E SP+NBO7/CMO after constrained opt at R0+0.25A  [oxime: C13=N14-O15]

1 1

$NBO CMO PRINT=2 E2PERT=0.05 BNDIDX $END

--Link1--
%chk=mol_023_E_scan_pt6.chk
%nprocshared=8
%mem=16GB
#p wB97XD/6-311+G(d,p) opt=(ModRedundant) SCF=(Tight,XQC) NoSymm scrf=(smd,solvent=water)

mol_023_E scan pt6 (R0+0.30A) rigid O-N displacement then constrained opt  [oxime: C13=N14-O15]

1 1
O       -4.07823600      0.87667900     -0.41389900
N       -3.55221500     -0.15395700     -0.03413700
O       -4.17637200     -1.13895600      0.31708300
C       -2.08464100     -0.21476900     -0.00067200
C       -1.47686200     -1.44205200      0.22152200
C       -0.09634800     -1.48517700      0.24270800
C        0.65017300     -0.31859500      0.04745000
C        0.01774600      0.91843900     -0.14611300
C       -1.37250000      0.95739500     -0.17601900
C        0.83250000      2.17356000     -0.29244200
C        2.06193400      2.09468600      0.60494500
C        2.92607300      0.89946400      0.22342500
C        2.13136500     -0.35387600      0.00704200
N        2.61315500     -1.50475400     -0.28341900
O        4.40253334     -1.38724265     -0.33705867
H       -2.06626900     -2.33578300      0.37127100
H        0.40231500     -2.42864200      0.42135000
H       -1.88680300      1.89837500     -0.32159400
H        1.14417500      2.28422600     -1.33786100
H        0.21652800      3.03896900     -0.04405300
H        2.65965800      3.00281500      0.51625900
H        1.74564500      2.00820100      1.64867300
H        3.68814700      0.70723200      0.98209100
H        3.45723500      1.09381000     -0.71549200
H        4.78024134     -1.49159365      0.55854633
H        4.70473234     -2.14842365     -0.86607367

B 14 15 F

--Link1--
%chk=mol_023_E_scan_pt6.chk
%nprocshared=8
%mem=16GB
#p wB97XD/6-311+G(d,p) Geom=Check Guess=Read Stable=Opt Pop=NBO7Read Density=Current scrf=(smd,solvent=water)

mol_023_E SP+NBO7/CMO after constrained opt at R0+0.30A  [oxime: C13=N14-O15]

1 1

$NBO CMO PRINT=2 E2PERT=0.05 BNDIDX $END


