%chk=mol_023_E_opt.chk
%nprocshared=8
%mem=16GB
#p wB97XD/6-311+G(d,p) opt scrf=(smd,solvent=water)

mol_023_E opt  [oxime: C13=N14-O15]

1 1
O       -4.71370000     -0.87850000      0.11850000
N       -4.23350000      0.24420000      0.04930000
O       -4.86200000      1.29170000     -0.01420000
C       -2.75140000      0.34510000      0.04150000
C       -2.16640000      1.60220000     -0.03430000
C       -0.79030000      1.68930000     -0.03650000
C       -0.00370000      0.52840000      0.02990000
C       -0.61470000     -0.73830000      0.10240000
C       -2.00320000     -0.81320000      0.10870000
C        0.20590000     -1.98340000      0.16610000
C        1.48580000     -1.83490000     -0.63450000
C        2.29940000     -0.65930000     -0.12120000
C        1.47870000      0.58480000      0.04640000
N        1.89820000      1.77400000      0.24150000
O        3.57010000      1.71630000      0.33530000
H       -2.78640000      2.48300000     -0.08870000
H       -0.32930000      2.66760000     -0.09610000
H       -2.50730000     -1.76620000      0.15960000
H        0.45300000     -2.19290000      1.21210000
H       -0.36580000     -2.83880000     -0.18470000
H        2.08850000     -2.73580000     -0.56150000
H        1.24690000     -1.68870000     -1.68820000
H        3.14780000     -0.44410000     -0.76850000
H        2.71550000     -0.87430000      0.86580000
H        3.82190000      2.29990000     -0.40790000
H        3.71630000      2.22160000      1.15940000


