%chk=mol_015_E_scan_pt1.chk
%nprocshared=8
%mem=16GB
#p wB97XD/6-311+G(d,p) opt=(ModRedundant) SCF=(Tight,XQC) NoSymm scrf=(smd,solvent=water)

mol_015_E scan pt1 (R0+0.05A) rigid O-N displacement then constrained opt  [oxime: C10=N11-O12]

1 1
C        3.06804200     -1.47342900      0.00598500
C        2.12120000     -0.30881800      0.00114000
C        2.56579300      1.01041500     -0.00088200
C        1.68052200      2.09517000     -0.00492900
C        0.31276800      1.88823700     -0.00679700
C       -0.13935900      0.56724400     -0.00453200
C        0.73894800     -0.51538300     -0.00106000
C        0.01285600     -1.82924400      0.00155200
C       -1.47869700     -1.44962200     -0.00007400
C       -1.50528000      0.05059700      0.00198200
N       -2.50133200      0.85612900      0.00990500
O       -3.79311864     -0.01493767      0.02528970
H        4.10608800     -1.13759300      0.00706800
H        2.90641700     -2.10112400      0.88769400
H        2.90975100     -2.10601200     -0.87280700
H        3.63404300      1.20338200      0.00073500
H        2.07506500      3.10456100     -0.00641500
H       -0.37964800      2.72141100     -0.00971400
H        0.27793500     -2.41967000      0.88213200
H        0.27907000     -2.42425000     -0.87553900
H       -2.01307900     -1.82036300      0.87689300
H       -2.00811600     -1.81960500     -0.88061700
H       -4.19356964      0.01185133     -0.86480730
H       -4.41497064      0.42348533      0.63435070

B 11 12 F

--Link1--
%chk=mol_015_E_scan_pt1.chk
%nprocshared=8
%mem=16GB
#p wB97XD/6-311+G(d,p) Geom=Check Guess=Read Stable=Opt Pop=NBO7Read Density=Current scrf=(smd,solvent=water)

mol_015_E SP+NBO7/CMO after constrained opt at R0+0.05A  [oxime: C10=N11-O12]

1 1

$NBO CMO PRINT=2 E2PERT=0.05 BNDIDX $END

--Link1--
%chk=mol_015_E_scan_pt2.chk
%nprocshared=8
%mem=16GB
#p wB97XD/6-311+G(d,p) opt=(ModRedundant) SCF=(Tight,XQC) NoSymm scrf=(smd,solvent=water)

mol_015_E scan pt2 (R0+0.10A) rigid O-N displacement then constrained opt  [oxime: C10=N11-O12]

1 1
C        3.06804200     -1.47342900      0.00598500
C        2.12120000     -0.30881800      0.00114000
C        2.56579300      1.01041500     -0.00088200
C        1.68052200      2.09517000     -0.00492900
C        0.31276800      1.88823700     -0.00679700
C       -0.13935900      0.56724400     -0.00453200
C        0.73894800     -0.51538300     -0.00106000
C        0.01285600     -1.82924400      0.00155200
C       -1.47869700     -1.44962200     -0.00007400
C       -1.50528000      0.05059700      0.00198200
N       -2.50133200      0.85612900      0.00990500
O       -3.83457228     -0.04289034      0.02578339
H        4.10608800     -1.13759300      0.00706800
H        2.90641700     -2.10112400      0.88769400
H        2.90975100     -2.10601200     -0.87280700
H        3.63404300      1.20338200      0.00073500
H        2.07506500      3.10456100     -0.00641500
H       -0.37964800      2.72141100     -0.00971400
H        0.27793500     -2.41967000      0.88213200
H        0.27907000     -2.42425000     -0.87553900
H       -2.01307900     -1.82036300      0.87689300
H       -2.00811600     -1.81960500     -0.88061700
H       -4.23502328     -0.01610134     -0.86431361
H       -4.45642428      0.39553266      0.63484439

B 11 12 F

--Link1--
%chk=mol_015_E_scan_pt2.chk
%nprocshared=8
%mem=16GB
#p wB97XD/6-311+G(d,p) Geom=Check Guess=Read Stable=Opt Pop=NBO7Read Density=Current scrf=(smd,solvent=water)

mol_015_E SP+NBO7/CMO after constrained opt at R0+0.10A  [oxime: C10=N11-O12]

1 1

$NBO CMO PRINT=2 E2PERT=0.05 BNDIDX $END

--Link1--
%chk=mol_015_E_scan_pt3.chk
%nprocshared=8
%mem=16GB
#p wB97XD/6-311+G(d,p) opt=(ModRedundant) SCF=(Tight,XQC) NoSymm scrf=(smd,solvent=water)

mol_015_E scan pt3 (R0+0.15A) rigid O-N displacement then constrained opt  [oxime: C10=N11-O12]

1 1
C        3.06804200     -1.47342900      0.00598500
C        2.12120000     -0.30881800      0.00114000
C        2.56579300      1.01041500     -0.00088200
C        1.68052200      2.09517000     -0.00492900
C        0.31276800      1.88823700     -0.00679700
C       -0.13935900      0.56724400     -0.00453200
C        0.73894800     -0.51538300     -0.00106000
C        0.01285600     -1.82924400      0.00155200
C       -1.47869700     -1.44962200     -0.00007400
C       -1.50528000      0.05059700      0.00198200
N       -2.50133200      0.85612900      0.00990500
O       -3.87602593     -0.07084301      0.02627709
H        4.10608800     -1.13759300      0.00706800
H        2.90641700     -2.10112400      0.88769400
H        2.90975100     -2.10601200     -0.87280700
H        3.63404300      1.20338200      0.00073500
H        2.07506500      3.10456100     -0.00641500
H       -0.37964800      2.72141100     -0.00971400
H        0.27793500     -2.41967000      0.88213200
H        0.27907000     -2.42425000     -0.87553900
H       -2.01307900     -1.82036300      0.87689300
H       -2.00811600     -1.81960500     -0.88061700
H       -4.27647693     -0.04405401     -0.86381991
H       -4.49787793      0.36757999      0.63533809

B 11 12 F

--Link1--
%chk=mol_015_E_scan_pt3.chk
%nprocshared=8
%mem=16GB
#p wB97XD/6-311+G(d,p) Geom=Check Guess=Read Stable=Opt Pop=NBO7Read Density=Current scrf=(smd,solvent=water)

mol_015_E SP+NBO7/CMO after constrained opt at R0+0.15A  [oxime: C10=N11-O12]

1 1

$NBO CMO PRINT=2 E2PERT=0.05 BNDIDX $END

--Link1--
%chk=mol_015_E_scan_pt4.chk
%nprocshared=8
%mem=16GB
#p wB97XD/6-311+G(d,p) opt=(ModRedundant) SCF=(Tight,XQC) NoSymm scrf=(smd,solvent=water)

mol_015_E scan pt4 (R0+0.20A) rigid O-N displacement then constrained opt  [oxime: C10=N11-O12]

1 1
C        3.06804200     -1.47342900      0.00598500
C        2.12120000     -0.30881800      0.00114000
C        2.56579300      1.01041500     -0.00088200
C        1.68052200      2.09517000     -0.00492900
C        0.31276800      1.88823700     -0.00679700
C       -0.13935900      0.56724400     -0.00453200
C        0.73894800     -0.51538300     -0.00106000
C        0.01285600     -1.82924400      0.00155200
C       -1.47869700     -1.44962200     -0.00007400
C       -1.50528000      0.05059700      0.00198200
N       -2.50133200      0.85612900      0.00990500
O       -3.91747957     -0.09879568      0.02677079
H        4.10608800     -1.13759300      0.00706800
H        2.90641700     -2.10112400      0.88769400
H        2.90975100     -2.10601200     -0.87280700
H        3.63404300      1.20338200      0.00073500
H        2.07506500      3.10456100     -0.00641500
H       -0.37964800      2.72141100     -0.00971400
H        0.27793500     -2.41967000      0.88213200
H        0.27907000     -2.42425000     -0.87553900
H       -2.01307900     -1.82036300      0.87689300
H       -2.00811600     -1.81960500     -0.88061700
H       -4.31793057     -0.07200668     -0.86332621
H       -4.53933157      0.33962732      0.63583179

B 11 12 F

--Link1--
%chk=mol_015_E_scan_pt4.chk
%nprocshared=8
%mem=16GB
#p wB97XD/6-311+G(d,p) Geom=Check Guess=Read Stable=Opt Pop=NBO7Read Density=Current scrf=(smd,solvent=water)

mol_015_E SP+NBO7/CMO after constrained opt at R0+0.20A  [oxime: C10=N11-O12]

1 1

$NBO CMO PRINT=2 E2PERT=0.05 BNDIDX $END

--Link1--
%chk=mol_015_E_scan_pt5.chk
%nprocshared=8
%mem=16GB
#p wB97XD/6-311+G(d,p) opt=(ModRedundant) SCF=(Tight,XQC) NoSymm scrf=(smd,solvent=water)

mol_015_E scan pt5 (R0+0.25A) rigid O-N displacement then constrained opt  [oxime: C10=N11-O12]

1 1
C        3.06804200     -1.47342900      0.00598500
C        2.12120000     -0.30881800      0.00114000
C        2.56579300      1.01041500     -0.00088200
C        1.68052200      2.09517000     -0.00492900
C        0.31276800      1.88823700     -0.00679700
C       -0.13935900      0.56724400     -0.00453200
C        0.73894800     -0.51538300     -0.00106000
C        0.01285600     -1.82924400      0.00155200
C       -1.47869700     -1.44962200     -0.00007400
C       -1.50528000      0.05059700      0.00198200
N       -2.50133200      0.85612900      0.00990500
O       -3.95893321     -0.12674835      0.02726449
H        4.10608800     -1.13759300      0.00706800
H        2.90641700     -2.10112400      0.88769400
H        2.90975100     -2.10601200     -0.87280700
H        3.63404300      1.20338200      0.00073500
H        2.07506500      3.10456100     -0.00641500
H       -0.37964800      2.72141100     -0.00971400
H        0.27793500     -2.41967000      0.88213200
H        0.27907000     -2.42425000     -0.87553900
H       -2.01307900     -1.82036300      0.87689300
H       -2.00811600     -1.81960500     -0.88061700
H       -4.35938421     -0.09995935     -0.86283251
H       -4.58078521      0.31167465      0.63632549

B 11 12 F

--Link1--
%chk=mol_015_E_scan_pt5.chk
%nprocshared=8
%mem=16GB
#p wB97XD/6-311+G(d,p) Geom=Check Guess=Read Stable=Opt Pop=NBO7Read Density=Current scrf=(smd,solvent=water)

mol_015_E SP+NBO7/CMO after constrained opt at R0+0.25A  [oxime: C10=N11-O12]

1 1

$NBO CMO PRINT=2 E2PERT=0.05 BNDIDX $END

--Link1--
%chk=mol_015_E_scan_pt6.chk
%nprocshared=8
%mem=16GB
#p wB97XD/6-311+G(d,p) opt=(ModRedundant) SCF=(Tight,XQC) NoSymm scrf=(smd,solvent=water)

mol_015_E scan pt6 (R0+0.30A) rigid O-N displacement then constrained opt  [oxime: C10=N11-O12]

1 1
C        3.06804200     -1.47342900      0.00598500
C        2.12120000     -0.30881800      0.00114000
C        2.56579300      1.01041500     -0.00088200
C        1.68052200      2.09517000     -0.00492900
C        0.31276800      1.88823700     -0.00679700
C       -0.13935900      0.56724400     -0.00453200
C        0.73894800     -0.51538300     -0.00106000
C        0.01285600     -1.82924400      0.00155200
C       -1.47869700     -1.44962200     -0.00007400
C       -1.50528000      0.05059700      0.00198200
N       -2.50133200      0.85612900      0.00990500
O       -4.00038685     -0.15470102      0.02775818
H        4.10608800     -1.13759300      0.00706800
H        2.90641700     -2.10112400      0.88769400
H        2.90975100     -2.10601200     -0.87280700
H        3.63404300      1.20338200      0.00073500
H        2.07506500      3.10456100     -0.00641500
H       -0.37964800      2.72141100     -0.00971400
H        0.27793500     -2.41967000      0.88213200
H        0.27907000     -2.42425000     -0.87553900
H       -2.01307900     -1.82036300      0.87689300
H       -2.00811600     -1.81960500     -0.88061700
H       -4.40083785     -0.12791202     -0.86233882
H       -4.62223885      0.28372198      0.63681918

B 11 12 F

--Link1--
%chk=mol_015_E_scan_pt6.chk
%nprocshared=8
%mem=16GB
#p wB97XD/6-311+G(d,p) Geom=Check Guess=Read Stable=Opt Pop=NBO7Read Density=Current scrf=(smd,solvent=water)

mol_015_E SP+NBO7/CMO after constrained opt at R0+0.30A  [oxime: C10=N11-O12]

1 1

$NBO CMO PRINT=2 E2PERT=0.05 BNDIDX $END


