%chk=mol_015_E_opt.chk
%nprocshared=8
%mem=16GB
#p wB97XD/6-311+G(d,p) opt scrf=(smd,solvent=water)

mol_015_E opt  [oxime: C10=N11-O12]

1 1
C        2.56550000     -1.82830000     -0.02440000
C        1.87900000     -0.50090000     -0.08700000
C        2.57790000      0.69880000     -0.23100000
C        1.94040000      1.93870000     -0.28930000
C        0.56330000      2.03480000     -0.20510000
C       -0.14340000      0.83900000     -0.06040000
C        0.49470000     -0.40730000     -0.00240000
C       -0.48190000     -1.53210000      0.15330000
C       -1.86160000     -0.85820000      0.19540000
C       -1.58120000      0.61380000      0.05660000
N       -2.35580000      1.62620000      0.02820000
O       -3.91680000      1.02280000      0.18770000
H        3.64260000     -1.72410000     -0.10500000
H        2.34740000     -2.34180000      0.91240000
H        2.23090000     -2.48450000     -0.82840000
H        3.65780000      0.66720000     -0.30020000
H        2.53920000      2.83170000     -0.40190000
H        0.08080000      3.00140000     -0.25160000
H       -0.28470000     -2.10010000      1.06010000
H       -0.40410000     -2.23560000     -0.67320000
H       -2.39760000     -1.03180000      1.12640000
H       -2.52030000     -1.17350000     -0.61130000
H       -4.34050000      1.40600000     -0.60460000
H       -4.23140000      1.53790000      0.95560000


