%chk=mol_034_Z_scan_pt1.chk
%nprocshared=10
%mem=16GB
#p wB97XD/6-311+G(d,p) opt=(ModRedundant) SCF=(Tight,XQC) NoSymm scrf=(smd,solvent=water)

mol_034_Z scan pt1 (R0+0.05A) rigid O-N displacement then constrained opt  [oxime: C11=N12-O13]

1 1
C        3.31546600      0.72790100      0.35756100
C        2.10804200     -0.13059400      0.09970200
C        2.25515300     -1.50000200     -0.09728900
C        1.16164800     -2.31687500     -0.36665300
C       -0.10745000     -1.77277700     -0.40761700
C       -0.28196200     -0.39905600     -0.18908400
C        0.82419000      0.43959700      0.03757300
C        0.68075300      1.93800800      0.16396800
C       -0.75813500      2.44088900      0.20613800
C       -1.64516600      1.65272800     -0.76048500
C       -1.61039700      0.23189100     -0.28016700
N       -2.76830800     -0.19088200      0.06496100
O       -2.67794082     -1.61397392      0.71503158
H        3.25183100      1.21790600      1.33398300
H        3.40652600      1.51912100     -0.39265100
H        4.22663400      0.12838100      0.33555300
H        3.24902200     -1.93361100     -0.05307000
H        1.30287100     -3.37600400     -0.54685000
H       -0.95530500     -2.40235000     -0.63755100
H        1.22142900      2.28317400      1.04911200
H        1.19685600      2.38366300     -0.69549600
H       -0.79033000      3.49966200     -0.05590800
H       -1.16572900      2.34420100      1.21731200
H       -2.66645600      2.03178900     -0.77181600
H       -1.23805100      1.68675700     -1.77535500
H       -2.25937382     -1.56810892      1.59838358
H       -3.60226182     -1.89091192      0.84489058

B 12 13 F

--Link1--
%chk=mol_034_Z_scan_pt1.chk
%nprocshared=10
%mem=16GB
#p wB97XD/6-311+G(d,p) Geom=Check Guess=Read Stable=Opt Pop=NBO7Read Density=Current scrf=(smd,solvent=water)

mol_034_Z SP+NBO7/CMO after constrained opt at R0+0.05A  [oxime: C11=N12-O13]

1 1

$NBO CMO PRINT=2 E2PERT=0.05 BNDIDX $END

--Link1--
%chk=mol_034_Z_scan_pt2.chk
%nprocshared=10
%mem=16GB
#p wB97XD/6-311+G(d,p) opt=(ModRedundant) SCF=(Tight,XQC) NoSymm scrf=(smd,solvent=water)

mol_034_Z scan pt2 (R0+0.10A) rigid O-N displacement then constrained opt  [oxime: C11=N12-O13]

1 1
C        3.31546600      0.72790100      0.35756100
C        2.10804200     -0.13059400      0.09970200
C        2.25515300     -1.50000200     -0.09728900
C        1.16164800     -2.31687500     -0.36665300
C       -0.10745000     -1.77277700     -0.40761700
C       -0.28196200     -0.39905600     -0.18908400
C        0.82419000      0.43959700      0.03757300
C        0.68075300      1.93800800      0.16396800
C       -0.75813500      2.44088900      0.20613800
C       -1.64516600      1.65272800     -0.76048500
C       -1.61039700      0.23189100     -0.28016700
N       -2.76830800     -0.19088200      0.06496100
O       -2.67505765     -1.65937783      0.73577216
H        3.25183100      1.21790600      1.33398300
H        3.40652600      1.51912100     -0.39265100
H        4.22663400      0.12838100      0.33555300
H        3.24902200     -1.93361100     -0.05307000
H        1.30287100     -3.37600400     -0.54685000
H       -0.95530500     -2.40235000     -0.63755100
H        1.22142900      2.28317400      1.04911200
H        1.19685600      2.38366300     -0.69549600
H       -0.79033000      3.49966200     -0.05590800
H       -1.16572900      2.34420100      1.21731200
H       -2.66645600      2.03178900     -0.77181600
H       -1.23805100      1.68675700     -1.77535500
H       -2.25649065     -1.61351283      1.61912416
H       -3.59937865     -1.93631583      0.86563116

B 12 13 F

--Link1--
%chk=mol_034_Z_scan_pt2.chk
%nprocshared=10
%mem=16GB
#p wB97XD/6-311+G(d,p) Geom=Check Guess=Read Stable=Opt Pop=NBO7Read Density=Current scrf=(smd,solvent=water)

mol_034_Z SP+NBO7/CMO after constrained opt at R0+0.10A  [oxime: C11=N12-O13]

1 1

$NBO CMO PRINT=2 E2PERT=0.05 BNDIDX $END

--Link1--
%chk=mol_034_Z_scan_pt3.chk
%nprocshared=10
%mem=16GB
#p wB97XD/6-311+G(d,p) opt=(ModRedundant) SCF=(Tight,XQC) NoSymm scrf=(smd,solvent=water)

mol_034_Z scan pt3 (R0+0.15A) rigid O-N displacement then constrained opt  [oxime: C11=N12-O13]

1 1
C        3.31546600      0.72790100      0.35756100
C        2.10804200     -0.13059400      0.09970200
C        2.25515300     -1.50000200     -0.09728900
C        1.16164800     -2.31687500     -0.36665300
C       -0.10745000     -1.77277700     -0.40761700
C       -0.28196200     -0.39905600     -0.18908400
C        0.82419000      0.43959700      0.03757300
C        0.68075300      1.93800800      0.16396800
C       -0.75813500      2.44088900      0.20613800
C       -1.64516600      1.65272800     -0.76048500
C       -1.61039700      0.23189100     -0.28016700
N       -2.76830800     -0.19088200      0.06496100
O       -2.67217447     -1.70478175      0.75651274
H        3.25183100      1.21790600      1.33398300
H        3.40652600      1.51912100     -0.39265100
H        4.22663400      0.12838100      0.33555300
H        3.24902200     -1.93361100     -0.05307000
H        1.30287100     -3.37600400     -0.54685000
H       -0.95530500     -2.40235000     -0.63755100
H        1.22142900      2.28317400      1.04911200
H        1.19685600      2.38366300     -0.69549600
H       -0.79033000      3.49966200     -0.05590800
H       -1.16572900      2.34420100      1.21731200
H       -2.66645600      2.03178900     -0.77181600
H       -1.23805100      1.68675700     -1.77535500
H       -2.25360747     -1.65891675      1.63986474
H       -3.59649547     -1.98171975      0.88637174

B 12 13 F

--Link1--
%chk=mol_034_Z_scan_pt3.chk
%nprocshared=10
%mem=16GB
#p wB97XD/6-311+G(d,p) Geom=Check Guess=Read Stable=Opt Pop=NBO7Read Density=Current scrf=(smd,solvent=water)

mol_034_Z SP+NBO7/CMO after constrained opt at R0+0.15A  [oxime: C11=N12-O13]

1 1

$NBO CMO PRINT=2 E2PERT=0.05 BNDIDX $END

--Link1--
%chk=mol_034_Z_scan_pt4.chk
%nprocshared=10
%mem=16GB
#p wB97XD/6-311+G(d,p) opt=(ModRedundant) SCF=(Tight,XQC) NoSymm scrf=(smd,solvent=water)

mol_034_Z scan pt4 (R0+0.20A) rigid O-N displacement then constrained opt  [oxime: C11=N12-O13]

1 1
C        3.31546600      0.72790100      0.35756100
C        2.10804200     -0.13059400      0.09970200
C        2.25515300     -1.50000200     -0.09728900
C        1.16164800     -2.31687500     -0.36665300
C       -0.10745000     -1.77277700     -0.40761700
C       -0.28196200     -0.39905600     -0.18908400
C        0.82419000      0.43959700      0.03757300
C        0.68075300      1.93800800      0.16396800
C       -0.75813500      2.44088900      0.20613800
C       -1.64516600      1.65272800     -0.76048500
C       -1.61039700      0.23189100     -0.28016700
N       -2.76830800     -0.19088200      0.06496100
O       -2.66929130     -1.75018567      0.77725332
H        3.25183100      1.21790600      1.33398300
H        3.40652600      1.51912100     -0.39265100
H        4.22663400      0.12838100      0.33555300
H        3.24902200     -1.93361100     -0.05307000
H        1.30287100     -3.37600400     -0.54685000
H       -0.95530500     -2.40235000     -0.63755100
H        1.22142900      2.28317400      1.04911200
H        1.19685600      2.38366300     -0.69549600
H       -0.79033000      3.49966200     -0.05590800
H       -1.16572900      2.34420100      1.21731200
H       -2.66645600      2.03178900     -0.77181600
H       -1.23805100      1.68675700     -1.77535500
H       -2.25072430     -1.70432067      1.66060532
H       -3.59361230     -2.02712367      0.90711232

B 12 13 F

--Link1--
%chk=mol_034_Z_scan_pt4.chk
%nprocshared=10
%mem=16GB
#p wB97XD/6-311+G(d,p) Geom=Check Guess=Read Stable=Opt Pop=NBO7Read Density=Current scrf=(smd,solvent=water)

mol_034_Z SP+NBO7/CMO after constrained opt at R0+0.20A  [oxime: C11=N12-O13]

1 1

$NBO CMO PRINT=2 E2PERT=0.05 BNDIDX $END

--Link1--
%chk=mol_034_Z_scan_pt5.chk
%nprocshared=10
%mem=16GB
#p wB97XD/6-311+G(d,p) opt=(ModRedundant) SCF=(Tight,XQC) NoSymm scrf=(smd,solvent=water)

mol_034_Z scan pt5 (R0+0.25A) rigid O-N displacement then constrained opt  [oxime: C11=N12-O13]

1 1
C        3.31546600      0.72790100      0.35756100
C        2.10804200     -0.13059400      0.09970200
C        2.25515300     -1.50000200     -0.09728900
C        1.16164800     -2.31687500     -0.36665300
C       -0.10745000     -1.77277700     -0.40761700
C       -0.28196200     -0.39905600     -0.18908400
C        0.82419000      0.43959700      0.03757300
C        0.68075300      1.93800800      0.16396800
C       -0.75813500      2.44088900      0.20613800
C       -1.64516600      1.65272800     -0.76048500
C       -1.61039700      0.23189100     -0.28016700
N       -2.76830800     -0.19088200      0.06496100
O       -2.66640812     -1.79558958      0.79799390
H        3.25183100      1.21790600      1.33398300
H        3.40652600      1.51912100     -0.39265100
H        4.22663400      0.12838100      0.33555300
H        3.24902200     -1.93361100     -0.05307000
H        1.30287100     -3.37600400     -0.54685000
H       -0.95530500     -2.40235000     -0.63755100
H        1.22142900      2.28317400      1.04911200
H        1.19685600      2.38366300     -0.69549600
H       -0.79033000      3.49966200     -0.05590800
H       -1.16572900      2.34420100      1.21731200
H       -2.66645600      2.03178900     -0.77181600
H       -1.23805100      1.68675700     -1.77535500
H       -2.24784112     -1.74972458      1.68134590
H       -3.59072912     -2.07252758      0.92785290

B 12 13 F

--Link1--
%chk=mol_034_Z_scan_pt5.chk
%nprocshared=10
%mem=16GB
#p wB97XD/6-311+G(d,p) Geom=Check Guess=Read Stable=Opt Pop=NBO7Read Density=Current scrf=(smd,solvent=water)

mol_034_Z SP+NBO7/CMO after constrained opt at R0+0.25A  [oxime: C11=N12-O13]

1 1

$NBO CMO PRINT=2 E2PERT=0.05 BNDIDX $END

--Link1--
%chk=mol_034_Z_scan_pt6.chk
%nprocshared=10
%mem=16GB
#p wB97XD/6-311+G(d,p) opt=(ModRedundant) SCF=(Tight,XQC) NoSymm scrf=(smd,solvent=water)

mol_034_Z scan pt6 (R0+0.30A) rigid O-N displacement then constrained opt  [oxime: C11=N12-O13]

1 1
C        3.31546600      0.72790100      0.35756100
C        2.10804200     -0.13059400      0.09970200
C        2.25515300     -1.50000200     -0.09728900
C        1.16164800     -2.31687500     -0.36665300
C       -0.10745000     -1.77277700     -0.40761700
C       -0.28196200     -0.39905600     -0.18908400
C        0.82419000      0.43959700      0.03757300
C        0.68075300      1.93800800      0.16396800
C       -0.75813500      2.44088900      0.20613800
C       -1.64516600      1.65272800     -0.76048500
C       -1.61039700      0.23189100     -0.28016700
N       -2.76830800     -0.19088200      0.06496100
O       -2.66352495     -1.84099350      0.81873448
H        3.25183100      1.21790600      1.33398300
H        3.40652600      1.51912100     -0.39265100
H        4.22663400      0.12838100      0.33555300
H        3.24902200     -1.93361100     -0.05307000
H        1.30287100     -3.37600400     -0.54685000
H       -0.95530500     -2.40235000     -0.63755100
H        1.22142900      2.28317400      1.04911200
H        1.19685600      2.38366300     -0.69549600
H       -0.79033000      3.49966200     -0.05590800
H       -1.16572900      2.34420100      1.21731200
H       -2.66645600      2.03178900     -0.77181600
H       -1.23805100      1.68675700     -1.77535500
H       -2.24495795     -1.79512850      1.70208648
H       -3.58784595     -2.11793150      0.94859348

B 12 13 F

--Link1--
%chk=mol_034_Z_scan_pt6.chk
%nprocshared=10
%mem=16GB
#p wB97XD/6-311+G(d,p) Geom=Check Guess=Read Stable=Opt Pop=NBO7Read Density=Current scrf=(smd,solvent=water)

mol_034_Z SP+NBO7/CMO after constrained opt at R0+0.30A  [oxime: C11=N12-O13]

1 1

$NBO CMO PRINT=2 E2PERT=0.05 BNDIDX $END


