%chk=mol_034_Z_opt.chk
%nprocshared=10
%mem=16GB
#p wB97XD/6-311+G(d,p) opt scrf=(smd,solvent=water)

mol_034_Z opt  [oxime: C11=N12-O13]

1 1
C        2.74770000     -1.57370000     -0.08360000
C        1.89150000     -0.36870000      0.14240000
C        2.47680000      0.84710000      0.47840000
C        1.72160000      1.98730000      0.70770000
C        0.35170000      1.93730000      0.57880000
C       -0.27540000      0.72810000      0.22690000
C        0.49300000     -0.44370000      0.04290000
C       -0.14560000     -1.78680000     -0.17600000
C       -1.62930000     -1.77260000     -0.50510000
C       -2.36490000     -0.74140000      0.33480000
C       -1.72580000      0.60430000      0.08950000
N       -2.65430000      1.40160000     -0.27550000
O       -2.04830000      2.88810000     -0.62380000
H        2.66090000     -1.94080000     -1.10620000
H        2.47150000     -2.39590000      0.57490000
H        3.79350000     -1.34680000      0.09280000
H        3.55260000      0.89030000      0.58140000
H        2.20700000      2.90510000      1.00480000
H       -0.22560000      2.81660000      0.82570000
H        0.39680000     -2.32670000     -0.95080000
H        0.01150000     -2.36570000      0.73890000
H       -2.05340000     -2.75590000     -0.31280000
H       -1.79280000     -1.56250000     -1.56310000
H       -3.42730000     -0.70460000      0.11140000
H       -2.26300000     -0.96470000      1.39730000
H       -1.34520000      2.74240000     -1.29000000
H       -2.82510000      3.30230000     -1.04150000


