28
mol_030_Z_opt
C        3.966400     -0.392600     -0.146500
O        2.596000     -0.796800     -0.158800
C        1.639500      0.140500     -0.050100
C        1.887300      1.508000      0.048200
C        0.835200      2.402000      0.188600
C       -0.466200      1.953700      0.205200
C       -0.723200      0.578800      0.076600
C        0.318000     -0.354500     -0.023200
C        0.099300     -1.840700     -0.031000
C       -1.343200     -2.274000     -0.237200
C       -2.288100     -1.389500      0.560600
C       -2.085500      0.035700      0.072800
N       -3.209900      0.451300     -0.326100
O       -3.023700      2.019600     -1.071700
H        4.541600     -1.306100     -0.233700
H        4.210800      0.106200      0.790100
H        4.184400      0.258600     -0.991600
H        2.897200      1.886700      0.031000
H        1.046700      3.455500      0.297500
H       -1.266700      2.656800      0.372500
H        0.464600     -2.225400      0.924500
H        0.739600     -2.297800     -0.782700
H       -1.463400     -3.311300      0.068700
H       -1.609700     -2.229200     -1.293700
H       -3.327600     -1.686500      0.461700
H       -2.032800     -1.401300      1.620100
H       -3.963500      2.233300     -1.217200
H       -2.622900      1.819000     -1.938700
