28
mol_030_E_opt
C        4.123000     -0.437100      0.393000
O        2.734300     -0.774800      0.359800
C        1.832100      0.186500      0.099600
C        2.157700      1.521100     -0.141200
C        1.150400      2.443800     -0.387400
C       -0.172900      2.064000     -0.385400
C       -0.503000      0.723300     -0.145300
C        0.482800     -0.239500      0.077800
C        0.136000     -1.679300      0.289500
C       -1.125700     -2.050800     -0.465700
C       -2.287400     -1.163700     -0.050100
C       -1.936400      0.297600     -0.077100
N       -2.717200      1.287300     -0.014600
O       -4.380500      0.602200      0.191500
H        4.646300     -1.360000      0.613000
H        4.324100      0.293800      1.175300
H        4.448000     -0.053500     -0.573300
H        3.184400      1.852400     -0.142000
H        1.414800      3.472500     -0.577800
H       -0.942200      2.799600     -0.574800
H        0.956300     -2.322400     -0.012100
H       -0.006400     -1.861900      1.359600
H       -0.950200     -1.956800     -1.537900
H       -1.385600     -3.089500     -0.274000
H       -3.161900     -1.336300     -0.671400
H       -2.590300     -1.377800      0.975600
H       -4.644200      1.147900      0.955800
H       -4.786100      1.011500     -0.595100
