%chk=mol_011_E.chk
%nprocshared=8
%mem=16GB
#p wB97XD/6-311+G(d,p) sp pop=nbo7read

mol_011_E  [oxime: C3=N2-O1]

1 1
O        3.43780000      0.77620000      0.51840000
N        1.89300000      1.32090000      0.28180000
C        1.16480000      0.28930000      0.08720000
C        1.49490000     -1.17790000      0.04990000
C        0.15960000     -1.88450000     -0.23460000
C       -0.84570000     -0.77900000     -0.33420000
C       -2.20720000     -0.86280000     -0.57540000
C       -2.96260000      0.29730000     -0.62890000
C       -2.35290000      1.53860000     -0.44100000
F       -3.11230000      2.63820000     -0.49940000
C       -0.99890000      1.66840000     -0.19790000
C       -0.26160000      0.48350000     -0.14870000
H        3.92410000      1.28090000     -0.16280000
H        3.65300000      1.18390000      1.38020000
H        2.24710000     -1.35470000     -0.71610000
H        1.93950000     -1.46540000      1.00050000
H        0.20460000     -2.45970000     -1.15620000
H       -0.09730000     -2.58130000      0.55940000
H       -2.68890000     -1.81830000     -0.72220000
H       -4.02600000      0.25790000     -0.81540000
H       -0.56500000      2.64840000     -0.05790000
$NBO E2PERT BNDIDX NBOSUM CMO $END


