%chk=mol_006_E_sp4.chk
%nprocshared=8
%mem=16GB
#p wB97XD/6-311+G(d,p) sp pop=nboread

mol_006_E_sp4  R(N-O)=1.9138A  [oxime: C10=N11-O12]

1 1
C        4.12902800     -0.07086500      0.00022800
C        2.63034900     -0.15006000      0.00006700
C        2.00197300     -1.41128500     -0.00002100
C        0.63037700     -1.53506200     -0.00010100
C       -0.12657500     -0.35910800     -0.00019000
C        0.46602900      0.90687900     -0.00004400
C        1.85021100      1.00379700      0.00005400
C       -0.54281500      2.01732100     -0.00002100
C       -1.90956100      1.30762400     -0.00010200
C       -1.58573000     -0.17393600     -0.00048800
N       -2.31569600     -1.19336000     -0.00034200
O       -4.11027900     -0.52831400      0.00061600
H        4.47987900      0.96109800      0.00001200
H        4.53800000     -0.57353000     -0.88013500
H        4.53777000     -0.57307100      0.88096400
H        2.61661500     -2.30442100     -0.00003800
H        0.16254900     -2.51158000     -0.00021800
H        2.32539000      1.97875000      0.00014000
H       -0.42894000      2.65403000     -0.87971900
H       -0.42900600      2.65393500      0.87975500
H       -2.51673600      1.52747300     -0.87971500
H       -2.51663400      1.52709900      0.87968900
H       -4.46839500     -0.98500400     -0.77336600
H       -4.46809300     -0.98658300      0.77380400

$NBO E2PERT BNDIDX NBOSUM $END


