%chk=mol_006_E_sp2.chk
%nprocshared=8
%mem=16GB
#p wB97XD/6-311+G(d,p) sp pop=nboread

mol_006_E_sp2  R(N-O)=1.7138A  [oxime: C10=N11-O12]

1 1
C        4.10855800     -0.09371700     -0.00003000
C        2.60916700     -0.15810700     -0.00002800
C        1.96905800     -1.41450900      0.00002700
C        0.59707500     -1.52465900      0.00006400
C       -0.15372400     -0.34253300      0.00004400
C        0.45593200      0.91515600     -0.00001100
C        1.84047400      1.00333200     -0.00004900
C       -0.54716900      2.03280000     -0.00002700
C       -1.91691000      1.32581900      0.00005800
C       -1.59698200     -0.15017500      0.00006100
N       -2.35097000     -1.17639000      0.00004900
O       -3.95859800     -0.58241400     -0.00022000
H        4.46967300      0.93473800     -0.00042400
H        4.51257300     -0.60068200     -0.88028600
H        4.51252000     -0.59997300      0.88066200
H        2.57689900     -2.31235000      0.00004300
H        0.11871800     -2.49640200      0.00011000
H        2.32540800      1.97345700     -0.00009600
H       -0.42883300      2.66949400     -0.87917000
H       -0.42876200      2.66958800      0.87903700
H       -2.52050600      1.56237600     -0.87857600
H       -2.52038000      1.56240400      0.87877500
H       -4.34220200     -1.01562900     -0.77850100
H       -4.34241200     -1.01342000      0.77918700

$NBO E2PERT BNDIDX NBOSUM $END


