%chk=mol_006_E_sp3.chk
%nprocshared=8
%mem=16GB
#p wB97XD/6-311+G(d,p) sp pop=nbo7read scrf=(smd,solvent=water)

mol_006_E_sp3  R(N-O)=1.7108A  [oxime: C10=N11-O12]

1 1
C        4.11280400     -0.07860500     -0.00579700
C        2.61287800     -0.15274800      0.00003400
C        1.97967400     -1.41063100      0.00300600
C        0.60432100     -1.52376700      0.00520400
C       -0.15187400     -0.34800000      0.00463700
C        0.45181700      0.90899900      0.00270200
C        1.83904700      1.00432400      0.00051600
C       -0.55701900      2.02008600      0.00266400
C       -1.92133800      1.30778100     -0.00587200
C       -1.60318300     -0.16057300      0.00031900
N       -2.35929100     -1.18649900      0.00165000
O       -3.95112000     -0.55993000     -0.01549900
H        4.46048200      0.95535200      0.00764600
H        4.51681600     -0.56882500     -0.89615000
H        4.52623200     -0.59589400      0.86450400
H        2.59108500     -2.30667500      0.00283400
H        0.12984300     -2.49767400      0.00657500
H        2.31839100      1.97766600     -0.00151600
H       -0.43431700      2.65919400     -0.87384600
H       -0.44181700      2.65064700      0.88646900
H       -2.51643600      1.53445100     -0.89201000
H       -2.53179100      1.54052700      0.86812000
H       -4.37239200     -1.07555700     -0.72428500
H       -4.32485700     -0.88947100      0.81962400

$NBO E2PERT BNDIDX NBOSUM CMO $END


