%chk=mol_006_E_ts1_a1.chk
%nprocshared=8
%mem=16GB
#p wB97XD/6-311+G(d,p) opt=(qst2,calcfc) freq pop=nbo7read scrf=(smd,solvent=water) scf=(tight,xqc)

mol_006_E ts1_a1 -- reactant (R_A1)

1 1
C        3.88460000     -0.07800000     -0.20730000
C        2.40890000      0.09240000     -0.09360000
C        1.88060000      1.28370000      0.43510000
C        0.52150000      1.48550000      0.55220000
C       -0.32870000      0.46050000      0.12600000
C        0.17610000     -0.73490000     -0.40680000
C        1.54050000     -0.91450000     -0.51370000
C       -0.92040000     -1.68030000     -0.79570000
C       -2.22000000     -0.94640000     -0.43310000
C       -1.77840000      0.37970000      0.13060000
N       -2.44680000      1.37210000      0.58200000
O       -4.05340000      0.95850000      0.45430000
H        4.15300000     -1.07780000     -0.53260000
H        4.37830000      0.11540000      0.74440000
H        4.29990000      0.63030000     -0.92540000
H        2.56640000      2.05600000      0.75640000
H        0.15010000      2.41410000      0.96370000
H        1.94300000     -1.83150000     -0.92020000
H       -0.83480000     -2.62390000     -0.26270000
H       -0.87960000     -1.91340000     -1.85690000
H       -2.81420000     -1.46790000      0.31450000
H       -2.86910000     -0.77160000     -1.28870000
H       -4.35580000      1.08760000      1.37410000
H       -4.40150000      1.70470000     -0.07120000

mol_006_E ts1_a1 -- rearrangement product (P_A1, AIMNet2 guess)

1 1
C        3.79160000     -0.10800000     -0.22050000
C        2.33810000      0.19200000     -0.04650000
C        1.93500000      1.41520000      0.49340000
C        0.59930000      1.72760000      0.65760000
C       -0.33610000      0.78860000      0.27030000
C        0.01140000     -0.45700000     -0.27760000
C        1.36150000     -0.73330000     -0.42500000
C       -1.03240000     -1.47610000     -0.70530000
C       -2.56960000     -1.12950000     -0.49950000
C       -2.52570000      0.19680000      0.06850000
N       -1.74130000      1.01070000      0.39930000
O       -4.71170000      0.64830000      0.33600000
H        3.95880000     -1.12840000     -0.55340000
H        4.33930000      0.04060000      0.71020000
H        4.24050000      0.56160000     -0.95640000
H        2.69120000      2.12970000      0.78780000
H        0.27590000      2.67070000      1.07400000
H        1.66440000     -1.68630000     -0.84240000
H       -0.84440000     -2.40500000     -0.17300000
H       -0.89440000     -1.68580000     -1.76320000
H       -3.05130000     -1.83100000      0.17800000
H       -3.11180000     -1.13960000     -1.44210000
H       -5.17530000      0.62600000      1.18400000
H       -5.22500000      1.23560000     -0.23510000

$NBO E2PERT BNDIDX NBOSUM CMO $END


