%chk=mol_010_Z_opt.chk
%nprocshared=8
%mem=16GB
#p wB97XD/6-311+G(d,p) opt scrf=(smd,solvent=water)

mol_010_Z opt  [oxime: C9=N10-O11]

1 1
C        4.10430000      0.14400000      0.00700000
O        2.85410000      0.82010000      0.18840000
C        1.71570000      0.12830000      0.02890000
C        1.64250000     -1.23260000     -0.32500000
C        0.42410000     -1.87080000     -0.46080000
C       -0.75060000     -1.17010000     -0.25050000
C       -0.67640000      0.19070000      0.09450000
C        0.53870000      0.84760000      0.24260000
C       -2.04370000      0.68070000      0.25140000
N       -2.64950000      1.77600000      0.41050000
O       -1.43230000      3.05660000      0.52580000
C       -3.02010000     -0.49980000      0.15630000
C       -2.15140000     -1.66540000     -0.36000000
H        4.86890000      0.88930000      0.19230000
H        4.20910000     -0.67300000      0.72080000
H        4.19770000     -0.23040000     -1.01240000
H        2.54260000     -1.80210000     -0.49350000
H        0.40050000     -2.91700000     -0.72990000
H        0.63890000      1.87990000      0.53160000
H       -1.52230000      3.45810000     -0.35830000
H       -1.90850000      3.63260000      1.15220000
H       -3.86950000     -0.27050000     -0.47790000
H       -3.40310000     -0.69540000      1.15410000
H       -2.31230000     -2.57880000      0.20780000
H       -2.39750000     -1.89800000     -1.39590000


