%chk=mol_010_Z_scan_pt1.chk
%nprocshared=6
%mem=16GB
#p wB97XD/6-311+G(d,p) opt=(ModRedundant) SCF=(Tight,XQC) NoSymm scrf=(smd,solvent=water)

mol_010_Z scan pt1 (R0+0.05A) rigid O-N displacement then constrained opt  [oxime: C9=N10-O11]

1 1
C       -4.14229200      0.49004700     -0.05950000
O       -2.83169800      1.04710000     -0.06360500
C       -1.76911500      0.19605200     -0.01523400
C       -1.88994300     -1.19617500      0.06992500
C       -0.75611300     -1.99907900      0.10596300
C        0.50177400     -1.41954200      0.05580700
C        0.61192400     -0.02528700     -0.02586300
C       -0.51480900      0.79504600     -0.05879800
C        2.03660000      0.30664500     -0.07537400
N        2.71217100      1.39151600     -0.00504100
O        1.73418458      2.59744357      0.11880251
C        2.83356400     -0.96694400     -0.22875400
C        1.84224200     -2.09462200      0.10181200
H       -4.82340500      1.33699900     -0.11804400
H       -4.29473100     -0.16140300     -0.92465700
H       -4.33106500     -0.06562100      0.86339900
H       -2.86560600     -1.66272100      0.10639400
H       -0.86426500     -3.07576400      0.17044300
H       -0.45195000      1.87090700     -0.13218400
H        1.55695558      2.76865557      1.06455151
H        2.21496958      3.36842457     -0.23263549
H        3.72628400     -0.96274600      0.39490000
H        3.15072100     -1.02464000     -1.27359800
H        1.91107000     -2.92184400     -0.60586700
H        2.02899600     -2.49693700      1.10084800

B 10 11 F

--Link1--
%chk=mol_010_Z_scan_pt1.chk
%nprocshared=6
%mem=16GB
#p wB97XD/6-311+G(d,p) Geom=Check Guess=Read Stable=Opt Pop=NBO7Read Density=Current scrf=(smd,solvent=water)

mol_010_Z SP+NBO7/CMO after constrained opt at R0+0.05A  [oxime: C9=N10-O11]

1 1

$NBO CMO PRINT=2 E2PERT=0.05 BNDIDX $END

--Link1--
%chk=mol_010_Z_scan_pt2.chk
%nprocshared=6
%mem=16GB
#p wB97XD/6-311+G(d,p) opt=(ModRedundant) SCF=(Tight,XQC) NoSymm scrf=(smd,solvent=water)

mol_010_Z scan pt2 (R0+0.10A) rigid O-N displacement then constrained opt  [oxime: C9=N10-O11]

1 1
C       -4.14229200      0.49004700     -0.05950000
O       -2.83169800      1.04710000     -0.06360500
C       -1.76911500      0.19605200     -0.01523400
C       -1.88994300     -1.19617500      0.06992500
C       -0.75611300     -1.99907900      0.10596300
C        0.50177400     -1.41954200      0.05580700
C        0.61192400     -0.02528700     -0.02586300
C       -0.51480900      0.79504600     -0.05879800
C        2.03660000      0.30664500     -0.07537400
N        2.71217100      1.39151600     -0.00504100
O        1.70279017      2.63615515      0.12277802
C        2.83356400     -0.96694400     -0.22875400
C        1.84224200     -2.09462200      0.10181200
H       -4.82340500      1.33699900     -0.11804400
H       -4.29473100     -0.16140300     -0.92465700
H       -4.33106500     -0.06562100      0.86339900
H       -2.86560600     -1.66272100      0.10639400
H       -0.86426500     -3.07576400      0.17044300
H       -0.45195000      1.87090700     -0.13218400
H        1.52556117      2.80736715      1.06852702
H        2.18357517      3.40713615     -0.22865998
H        3.72628400     -0.96274600      0.39490000
H        3.15072100     -1.02464000     -1.27359800
H        1.91107000     -2.92184400     -0.60586700
H        2.02899600     -2.49693700      1.10084800

B 10 11 F

--Link1--
%chk=mol_010_Z_scan_pt2.chk
%nprocshared=6
%mem=16GB
#p wB97XD/6-311+G(d,p) Geom=Check Guess=Read Stable=Opt Pop=NBO7Read Density=Current scrf=(smd,solvent=water)

mol_010_Z SP+NBO7/CMO after constrained opt at R0+0.10A  [oxime: C9=N10-O11]

1 1

$NBO CMO PRINT=2 E2PERT=0.05 BNDIDX $END

--Link1--
%chk=mol_010_Z_scan_pt3.chk
%nprocshared=6
%mem=16GB
#p wB97XD/6-311+G(d,p) opt=(ModRedundant) SCF=(Tight,XQC) NoSymm scrf=(smd,solvent=water)

mol_010_Z scan pt3 (R0+0.15A) rigid O-N displacement then constrained opt  [oxime: C9=N10-O11]

1 1
C       -4.14229200      0.49004700     -0.05950000
O       -2.83169800      1.04710000     -0.06360500
C       -1.76911500      0.19605200     -0.01523400
C       -1.88994300     -1.19617500      0.06992500
C       -0.75611300     -1.99907900      0.10596300
C        0.50177400     -1.41954200      0.05580700
C        0.61192400     -0.02528700     -0.02586300
C       -0.51480900      0.79504600     -0.05879800
C        2.03660000      0.30664500     -0.07537400
N        2.71217100      1.39151600     -0.00504100
O        1.67139575      2.67486672      0.12675353
C        2.83356400     -0.96694400     -0.22875400
C        1.84224200     -2.09462200      0.10181200
H       -4.82340500      1.33699900     -0.11804400
H       -4.29473100     -0.16140300     -0.92465700
H       -4.33106500     -0.06562100      0.86339900
H       -2.86560600     -1.66272100      0.10639400
H       -0.86426500     -3.07576400      0.17044300
H       -0.45195000      1.87090700     -0.13218400
H        1.49416675      2.84607872      1.07250253
H        2.15218075      3.44584772     -0.22468447
H        3.72628400     -0.96274600      0.39490000
H        3.15072100     -1.02464000     -1.27359800
H        1.91107000     -2.92184400     -0.60586700
H        2.02899600     -2.49693700      1.10084800

B 10 11 F

--Link1--
%chk=mol_010_Z_scan_pt3.chk
%nprocshared=6
%mem=16GB
#p wB97XD/6-311+G(d,p) Geom=Check Guess=Read Stable=Opt Pop=NBO7Read Density=Current scrf=(smd,solvent=water)

mol_010_Z SP+NBO7/CMO after constrained opt at R0+0.15A  [oxime: C9=N10-O11]

1 1

$NBO CMO PRINT=2 E2PERT=0.05 BNDIDX $END

--Link1--
%chk=mol_010_Z_scan_pt4.chk
%nprocshared=6
%mem=16GB
#p wB97XD/6-311+G(d,p) opt=(ModRedundant) SCF=(Tight,XQC) NoSymm scrf=(smd,solvent=water)

mol_010_Z scan pt4 (R0+0.20A) rigid O-N displacement then constrained opt  [oxime: C9=N10-O11]

1 1
C       -4.14229200      0.49004700     -0.05950000
O       -2.83169800      1.04710000     -0.06360500
C       -1.76911500      0.19605200     -0.01523400
C       -1.88994300     -1.19617500      0.06992500
C       -0.75611300     -1.99907900      0.10596300
C        0.50177400     -1.41954200      0.05580700
C        0.61192400     -0.02528700     -0.02586300
C       -0.51480900      0.79504600     -0.05879800
C        2.03660000      0.30664500     -0.07537400
N        2.71217100      1.39151600     -0.00504100
O        1.64000133      2.71357829      0.13072904
C        2.83356400     -0.96694400     -0.22875400
C        1.84224200     -2.09462200      0.10181200
H       -4.82340500      1.33699900     -0.11804400
H       -4.29473100     -0.16140300     -0.92465700
H       -4.33106500     -0.06562100      0.86339900
H       -2.86560600     -1.66272100      0.10639400
H       -0.86426500     -3.07576400      0.17044300
H       -0.45195000      1.87090700     -0.13218400
H        1.46277233      2.88479029      1.07647804
H        2.12078633      3.48455929     -0.22070896
H        3.72628400     -0.96274600      0.39490000
H        3.15072100     -1.02464000     -1.27359800
H        1.91107000     -2.92184400     -0.60586700
H        2.02899600     -2.49693700      1.10084800

B 10 11 F

--Link1--
%chk=mol_010_Z_scan_pt4.chk
%nprocshared=6
%mem=16GB
#p wB97XD/6-311+G(d,p) Geom=Check Guess=Read Stable=Opt Pop=NBO7Read Density=Current scrf=(smd,solvent=water)

mol_010_Z SP+NBO7/CMO after constrained opt at R0+0.20A  [oxime: C9=N10-O11]

1 1

$NBO CMO PRINT=2 E2PERT=0.05 BNDIDX $END

--Link1--
%chk=mol_010_Z_scan_pt5.chk
%nprocshared=6
%mem=16GB
#p wB97XD/6-311+G(d,p) opt=(ModRedundant) SCF=(Tight,XQC) NoSymm scrf=(smd,solvent=water)

mol_010_Z scan pt5 (R0+0.25A) rigid O-N displacement then constrained opt  [oxime: C9=N10-O11]

1 1
C       -4.14229200      0.49004700     -0.05950000
O       -2.83169800      1.04710000     -0.06360500
C       -1.76911500      0.19605200     -0.01523400
C       -1.88994300     -1.19617500      0.06992500
C       -0.75611300     -1.99907900      0.10596300
C        0.50177400     -1.41954200      0.05580700
C        0.61192400     -0.02528700     -0.02586300
C       -0.51480900      0.79504600     -0.05879800
C        2.03660000      0.30664500     -0.07537400
N        2.71217100      1.39151600     -0.00504100
O        1.60860692      2.75228987      0.13470455
C        2.83356400     -0.96694400     -0.22875400
C        1.84224200     -2.09462200      0.10181200
H       -4.82340500      1.33699900     -0.11804400
H       -4.29473100     -0.16140300     -0.92465700
H       -4.33106500     -0.06562100      0.86339900
H       -2.86560600     -1.66272100      0.10639400
H       -0.86426500     -3.07576400      0.17044300
H       -0.45195000      1.87090700     -0.13218400
H        1.43137792      2.92350187      1.08045355
H        2.08939192      3.52327087     -0.21673345
H        3.72628400     -0.96274600      0.39490000
H        3.15072100     -1.02464000     -1.27359800
H        1.91107000     -2.92184400     -0.60586700
H        2.02899600     -2.49693700      1.10084800

B 10 11 F

--Link1--
%chk=mol_010_Z_scan_pt5.chk
%nprocshared=6
%mem=16GB
#p wB97XD/6-311+G(d,p) Geom=Check Guess=Read Stable=Opt Pop=NBO7Read Density=Current scrf=(smd,solvent=water)

mol_010_Z SP+NBO7/CMO after constrained opt at R0+0.25A  [oxime: C9=N10-O11]

1 1

$NBO CMO PRINT=2 E2PERT=0.05 BNDIDX $END

--Link1--
%chk=mol_010_Z_scan_pt6.chk
%nprocshared=6
%mem=16GB
#p wB97XD/6-311+G(d,p) opt=(ModRedundant) SCF=(Tight,XQC) NoSymm scrf=(smd,solvent=water)

mol_010_Z scan pt6 (R0+0.30A) rigid O-N displacement then constrained opt  [oxime: C9=N10-O11]

1 1
C       -4.14229200      0.49004700     -0.05950000
O       -2.83169800      1.04710000     -0.06360500
C       -1.76911500      0.19605200     -0.01523400
C       -1.88994300     -1.19617500      0.06992500
C       -0.75611300     -1.99907900      0.10596300
C        0.50177400     -1.41954200      0.05580700
C        0.61192400     -0.02528700     -0.02586300
C       -0.51480900      0.79504600     -0.05879800
C        2.03660000      0.30664500     -0.07537400
N        2.71217100      1.39151600     -0.00504100
O        1.57721250      2.79100144      0.13868006
C        2.83356400     -0.96694400     -0.22875400
C        1.84224200     -2.09462200      0.10181200
H       -4.82340500      1.33699900     -0.11804400
H       -4.29473100     -0.16140300     -0.92465700
H       -4.33106500     -0.06562100      0.86339900
H       -2.86560600     -1.66272100      0.10639400
H       -0.86426500     -3.07576400      0.17044300
H       -0.45195000      1.87090700     -0.13218400
H        1.39998350      2.96221344      1.08442906
H        2.05799750      3.56198244     -0.21275794
H        3.72628400     -0.96274600      0.39490000
H        3.15072100     -1.02464000     -1.27359800
H        1.91107000     -2.92184400     -0.60586700
H        2.02899600     -2.49693700      1.10084800

B 10 11 F

--Link1--
%chk=mol_010_Z_scan_pt6.chk
%nprocshared=6
%mem=16GB
#p wB97XD/6-311+G(d,p) Geom=Check Guess=Read Stable=Opt Pop=NBO7Read Density=Current scrf=(smd,solvent=water)

mol_010_Z SP+NBO7/CMO after constrained opt at R0+0.30A  [oxime: C9=N10-O11]

1 1

$NBO CMO PRINT=2 E2PERT=0.05 BNDIDX $END


