%chk=mol_032_E_opt.chk
%nprocshared=8
%mem=16GB
#p wB97XD/6-311+G(d,p) opt scrf=(smd,solvent=water)

mol_032_E opt  [oxime: C3=N2-O1]

1 1
O       -2.69940000      2.43200000     -0.46170000
N       -1.02230000      2.09150000     -0.39290000
C       -0.90560000      0.85400000     -0.10550000
C       -2.00490000     -0.12790000      0.18030000
C       -1.49380000     -1.40810000      0.81740000
C       -0.31640000     -1.95820000      0.03670000
C        0.79300000     -0.95770000     -0.03720000
C        2.11530000     -1.37320000     -0.04310000
C        3.13910000     -0.43910000     -0.11140000
Br       4.92740000     -1.02590000     -0.11660000
C        2.86700000      0.92800000     -0.17570000
C        1.55760000      1.34850000     -0.17400000
C        0.50680000      0.42050000     -0.10050000
H       -2.76260000      3.11790000      0.23060000
H       -2.73290000      2.89800000     -1.31930000
H       -2.76310000      0.35020000      0.79580000
H       -2.47540000     -0.33240000     -0.78280000
H       -2.30320000     -2.13180000      0.84580000
H       -1.19480000     -1.21450000      1.84780000
H       -0.63910000     -2.21240000     -0.97770000
H        0.03300000     -2.88480000      0.48470000
H        2.34960000     -2.42610000      0.01020000
H        3.67530000      1.64140000     -0.22740000
H        1.34930000      2.41020000     -0.22420000


