%chk=mol_032_E_scan_pt1.chk
%nprocshared=8
%mem=16GB
#p wB97XD/6-311+G(d,p) opt=(ModRedundant,CalcFC,MaxCycles=300) SCF=(Tight,XQC) NoSymm scrf=(smd,solvent=water)

mol_032_E scan pt1 (R0+0.05A) rigid O-N displacement then constrained opt  [oxime: C3=N2-O1]

1 1
O        4.56680540     -1.42843417     -0.22865247
N        3.02244900     -1.52961600     -0.18990300
C        2.53691500     -0.35773600      0.00418200
C        3.33819600      0.90570600      0.12195800
C        2.49464900      2.11164000      0.51322900
C        1.23464200      2.17963100     -0.33954200
C        0.42549100      0.92452200     -0.16059000
C       -0.96738200      0.97012900     -0.17950400
C       -1.69884400     -0.19075500      0.00605100
Br      -3.59776900     -0.10280600     -0.01711500
C       -1.08089700     -1.41752800      0.22670300
C        0.30030100     -1.46746100      0.24480300
C        1.06071500     -0.30961500      0.04249200
H        4.92972240     -1.52619117      0.67323553
H        4.87030040     -2.19757817     -0.74433647
H        4.15345500      0.75129800      0.83061900
H        3.80082600      1.06685100     -0.85919700
H        3.09266000      3.01541600      0.38648100
H        2.21792500      2.04469600      1.56985400
H        1.51017000      2.28397400     -1.39603300
H        0.62651300      3.04705300     -0.07772500
H       -1.46363500      1.92126700     -0.33245800
H       -1.66139900     -2.31683500      0.38739600
H        0.78983500     -2.41546900      0.42853700

B 2 1 F

--Link1--
%chk=mol_032_E_scan_pt1.chk
%nprocshared=8
%mem=16GB
#p wB97XD/6-311+G(d,p) Geom=Check Guess=Read Stable=Opt Pop=NBO7Read Density=Current scrf=(smd,solvent=water)

mol_032_E SP+NBO7/CMO after constrained opt at R0+0.05A  [oxime: C3=N2-O1]

1 1

$NBO CMO PRINT=2 E2PERT=0.05 BNDIDX $END

--Link1--
%chk=mol_032_E_scan_pt2.chk
%nprocshared=8
%mem=16GB
#p wB97XD/6-311+G(d,p) opt=(ModRedundant,CalcFC,MaxCycles=300) SCF=(Tight,XQC) NoSymm scrf=(smd,solvent=water)

mol_032_E scan pt2 (R0+0.10A) rigid O-N displacement then constrained opt  [oxime: C3=N2-O1]

1 1
O        4.61668280     -1.42516635     -0.22990395
N        3.02244900     -1.52961600     -0.18990300
C        2.53691500     -0.35773600      0.00418200
C        3.33819600      0.90570600      0.12195800
C        2.49464900      2.11164000      0.51322900
C        1.23464200      2.17963100     -0.33954200
C        0.42549100      0.92452200     -0.16059000
C       -0.96738200      0.97012900     -0.17950400
C       -1.69884400     -0.19075500      0.00605100
Br      -3.59776900     -0.10280600     -0.01711500
C       -1.08089700     -1.41752800      0.22670300
C        0.30030100     -1.46746100      0.24480300
C        1.06071500     -0.30961500      0.04249200
H        4.97959980     -1.52292335      0.67198405
H        4.92017780     -2.19431035     -0.74558795
H        4.15345500      0.75129800      0.83061900
H        3.80082600      1.06685100     -0.85919700
H        3.09266000      3.01541600      0.38648100
H        2.21792500      2.04469600      1.56985400
H        1.51017000      2.28397400     -1.39603300
H        0.62651300      3.04705300     -0.07772500
H       -1.46363500      1.92126700     -0.33245800
H       -1.66139900     -2.31683500      0.38739600
H        0.78983500     -2.41546900      0.42853700

B 2 1 F

--Link1--
%chk=mol_032_E_scan_pt2.chk
%nprocshared=8
%mem=16GB
#p wB97XD/6-311+G(d,p) Geom=Check Guess=Read Stable=Opt Pop=NBO7Read Density=Current scrf=(smd,solvent=water)

mol_032_E SP+NBO7/CMO after constrained opt at R0+0.10A  [oxime: C3=N2-O1]

1 1

$NBO CMO PRINT=2 E2PERT=0.05 BNDIDX $END

--Link1--
%chk=mol_032_E_scan_pt3.chk
%nprocshared=8
%mem=16GB
#p wB97XD/6-311+G(d,p) opt=(ModRedundant,CalcFC,MaxCycles=300) SCF=(Tight,XQC) NoSymm scrf=(smd,solvent=water)

mol_032_E scan pt3 (R0+0.15A) rigid O-N displacement then constrained opt  [oxime: C3=N2-O1]

1 1
O        4.66656020     -1.42189852     -0.23115542
N        3.02244900     -1.52961600     -0.18990300
C        2.53691500     -0.35773600      0.00418200
C        3.33819600      0.90570600      0.12195800
C        2.49464900      2.11164000      0.51322900
C        1.23464200      2.17963100     -0.33954200
C        0.42549100      0.92452200     -0.16059000
C       -0.96738200      0.97012900     -0.17950400
C       -1.69884400     -0.19075500      0.00605100
Br      -3.59776900     -0.10280600     -0.01711500
C       -1.08089700     -1.41752800      0.22670300
C        0.30030100     -1.46746100      0.24480300
C        1.06071500     -0.30961500      0.04249200
H        5.02947720     -1.51965552      0.67073258
H        4.97005520     -2.19104252     -0.74683942
H        4.15345500      0.75129800      0.83061900
H        3.80082600      1.06685100     -0.85919700
H        3.09266000      3.01541600      0.38648100
H        2.21792500      2.04469600      1.56985400
H        1.51017000      2.28397400     -1.39603300
H        0.62651300      3.04705300     -0.07772500
H       -1.46363500      1.92126700     -0.33245800
H       -1.66139900     -2.31683500      0.38739600
H        0.78983500     -2.41546900      0.42853700

B 2 1 F

--Link1--
%chk=mol_032_E_scan_pt3.chk
%nprocshared=8
%mem=16GB
#p wB97XD/6-311+G(d,p) Geom=Check Guess=Read Stable=Opt Pop=NBO7Read Density=Current scrf=(smd,solvent=water)

mol_032_E SP+NBO7/CMO after constrained opt at R0+0.15A  [oxime: C3=N2-O1]

1 1

$NBO CMO PRINT=2 E2PERT=0.05 BNDIDX $END

--Link1--
%chk=mol_032_E_scan_pt4.chk
%nprocshared=8
%mem=16GB
#p wB97XD/6-311+G(d,p) opt=(ModRedundant,CalcFC,MaxCycles=300) SCF=(Tight,XQC) NoSymm scrf=(smd,solvent=water)

mol_032_E scan pt4 (R0+0.20A) rigid O-N displacement then constrained opt  [oxime: C3=N2-O1]

1 1
O        4.71643760     -1.41863070     -0.23240690
N        3.02244900     -1.52961600     -0.18990300
C        2.53691500     -0.35773600      0.00418200
C        3.33819600      0.90570600      0.12195800
C        2.49464900      2.11164000      0.51322900
C        1.23464200      2.17963100     -0.33954200
C        0.42549100      0.92452200     -0.16059000
C       -0.96738200      0.97012900     -0.17950400
C       -1.69884400     -0.19075500      0.00605100
Br      -3.59776900     -0.10280600     -0.01711500
C       -1.08089700     -1.41752800      0.22670300
C        0.30030100     -1.46746100      0.24480300
C        1.06071500     -0.30961500      0.04249200
H        5.07935460     -1.51638770      0.66948110
H        5.01993260     -2.18777470     -0.74809090
H        4.15345500      0.75129800      0.83061900
H        3.80082600      1.06685100     -0.85919700
H        3.09266000      3.01541600      0.38648100
H        2.21792500      2.04469600      1.56985400
H        1.51017000      2.28397400     -1.39603300
H        0.62651300      3.04705300     -0.07772500
H       -1.46363500      1.92126700     -0.33245800
H       -1.66139900     -2.31683500      0.38739600
H        0.78983500     -2.41546900      0.42853700

B 2 1 F

--Link1--
%chk=mol_032_E_scan_pt4.chk
%nprocshared=8
%mem=16GB
#p wB97XD/6-311+G(d,p) Geom=Check Guess=Read Stable=Opt Pop=NBO7Read Density=Current scrf=(smd,solvent=water)

mol_032_E SP+NBO7/CMO after constrained opt at R0+0.20A  [oxime: C3=N2-O1]

1 1

$NBO CMO PRINT=2 E2PERT=0.05 BNDIDX $END

--Link1--
%chk=mol_032_E_scan_pt5.chk
%nprocshared=8
%mem=16GB
#p wB97XD/6-311+G(d,p) opt=(ModRedundant,CalcFC,MaxCycles=300) SCF=(Tight,XQC) NoSymm scrf=(smd,solvent=water)

mol_032_E scan pt5 (R0+0.25A) rigid O-N displacement then constrained opt  [oxime: C3=N2-O1]

1 1
O        4.76631501     -1.41536287     -0.23365837
N        3.02244900     -1.52961600     -0.18990300
C        2.53691500     -0.35773600      0.00418200
C        3.33819600      0.90570600      0.12195800
C        2.49464900      2.11164000      0.51322900
C        1.23464200      2.17963100     -0.33954200
C        0.42549100      0.92452200     -0.16059000
C       -0.96738200      0.97012900     -0.17950400
C       -1.69884400     -0.19075500      0.00605100
Br      -3.59776900     -0.10280600     -0.01711500
C       -1.08089700     -1.41752800      0.22670300
C        0.30030100     -1.46746100      0.24480300
C        1.06071500     -0.30961500      0.04249200
H        5.12923201     -1.51311987      0.66822963
H        5.06981001     -2.18450687     -0.74934237
H        4.15345500      0.75129800      0.83061900
H        3.80082600      1.06685100     -0.85919700
H        3.09266000      3.01541600      0.38648100
H        2.21792500      2.04469600      1.56985400
H        1.51017000      2.28397400     -1.39603300
H        0.62651300      3.04705300     -0.07772500
H       -1.46363500      1.92126700     -0.33245800
H       -1.66139900     -2.31683500      0.38739600
H        0.78983500     -2.41546900      0.42853700

B 2 1 F

--Link1--
%chk=mol_032_E_scan_pt5.chk
%nprocshared=8
%mem=16GB
#p wB97XD/6-311+G(d,p) Geom=Check Guess=Read Stable=Opt Pop=NBO7Read Density=Current scrf=(smd,solvent=water)

mol_032_E SP+NBO7/CMO after constrained opt at R0+0.25A  [oxime: C3=N2-O1]

1 1

$NBO CMO PRINT=2 E2PERT=0.05 BNDIDX $END

--Link1--
%chk=mol_032_E_scan_pt6.chk
%nprocshared=8
%mem=16GB
#p wB97XD/6-311+G(d,p) opt=(ModRedundant,CalcFC,MaxCycles=300) SCF=(Tight,XQC) NoSymm scrf=(smd,solvent=water)

mol_032_E scan pt6 (R0+0.30A) rigid O-N displacement then constrained opt  [oxime: C3=N2-O1]

1 1
O        4.81619241     -1.41209505     -0.23490985
N        3.02244900     -1.52961600     -0.18990300
C        2.53691500     -0.35773600      0.00418200
C        3.33819600      0.90570600      0.12195800
C        2.49464900      2.11164000      0.51322900
C        1.23464200      2.17963100     -0.33954200
C        0.42549100      0.92452200     -0.16059000
C       -0.96738200      0.97012900     -0.17950400
C       -1.69884400     -0.19075500      0.00605100
Br      -3.59776900     -0.10280600     -0.01711500
C       -1.08089700     -1.41752800      0.22670300
C        0.30030100     -1.46746100      0.24480300
C        1.06071500     -0.30961500      0.04249200
H        5.17910941     -1.50985205      0.66697815
H        5.11968741     -2.18123905     -0.75059385
H        4.15345500      0.75129800      0.83061900
H        3.80082600      1.06685100     -0.85919700
H        3.09266000      3.01541600      0.38648100
H        2.21792500      2.04469600      1.56985400
H        1.51017000      2.28397400     -1.39603300
H        0.62651300      3.04705300     -0.07772500
H       -1.46363500      1.92126700     -0.33245800
H       -1.66139900     -2.31683500      0.38739600
H        0.78983500     -2.41546900      0.42853700

B 2 1 F

--Link1--
%chk=mol_032_E_scan_pt6.chk
%nprocshared=8
%mem=16GB
#p wB97XD/6-311+G(d,p) Geom=Check Guess=Read Stable=Opt Pop=NBO7Read Density=Current scrf=(smd,solvent=water)

mol_032_E SP+NBO7/CMO after constrained opt at R0+0.30A  [oxime: C3=N2-O1]

1 1

$NBO CMO PRINT=2 E2PERT=0.05 BNDIDX $END


