%chk=mol_019_Z_scan_pt1.chk
%nprocshared=8
%mem=16GB
#p wB97XD/6-311+G(d,p) opt=(ModRedundant) SCF=(Tight,XQC) NoSymm scrf=(smd,solvent=water)

mol_019_Z scan pt1 (R0+0.05A) rigid O-N displacement then constrained opt  [oxime: C3=N2-O1]

1 1
O        1.57773580     -2.42338981      0.52288337
N        2.20774100     -1.09705900     -0.02165100
C        1.30291000     -0.22553000     -0.27010500
C        1.90487400      1.08871100     -0.68078400
C        1.39898100      2.14137500      0.30693400
C       -0.11603700      2.26276400      0.21735500
C       -0.83379100      0.93777400      0.11147500
C       -2.22479900      0.91723200      0.22236100
C       -2.94402800     -0.25353100      0.04638500
C       -2.28089600     -1.44058400     -0.25664100
C       -0.90100800     -1.45279100     -0.34533900
C       -0.16495500     -0.27359000     -0.14472900
H        1.35819580     -2.31447281      1.46891637
H        2.28774380     -3.08841381      0.46608437
H        1.56140100      1.31810900     -1.69455200
H        2.99240200      1.02382300     -0.68303600
H        1.86823200      3.10090200      0.08366800
H        1.70169900      1.85690700      1.31974200
H       -0.51115400      2.81911300      1.07044200
H       -0.37823400      2.83990200     -0.67732300
H       -2.74492300      1.84481100      0.43776400
H       -4.02473000     -0.24117500      0.13274300
H       -2.83890400     -2.35406100     -0.42404000
H       -0.39644700     -2.37335200     -0.59952800

B 2 1 F

--Link1--
%chk=mol_019_Z_scan_pt1.chk
%nprocshared=8
%mem=16GB
#p wB97XD/6-311+G(d,p) Geom=Check Guess=Read Stable=Opt Pop=NBO7Read Density=Current scrf=(smd,solvent=water)

mol_019_Z SP+NBO7/CMO after constrained opt at R0+0.05A  [oxime: C3=N2-O1]

1 1

$NBO CMO PRINT=2 E2PERT=0.05 BNDIDX $END

--Link1--
%chk=mol_019_Z_scan_pt2.chk
%nprocshared=8
%mem=16GB
#p wB97XD/6-311+G(d,p) opt=(ModRedundant) SCF=(Tight,XQC) NoSymm scrf=(smd,solvent=water)

mol_019_Z scan pt2 (R0+0.10A) rigid O-N displacement then constrained opt  [oxime: C3=N2-O1]

1 1
O        1.55762160     -2.46573563      0.54026874
N        2.20774100     -1.09705900     -0.02165100
C        1.30291000     -0.22553000     -0.27010500
C        1.90487400      1.08871100     -0.68078400
C        1.39898100      2.14137500      0.30693400
C       -0.11603700      2.26276400      0.21735500
C       -0.83379100      0.93777400      0.11147500
C       -2.22479900      0.91723200      0.22236100
C       -2.94402800     -0.25353100      0.04638500
C       -2.28089600     -1.44058400     -0.25664100
C       -0.90100800     -1.45279100     -0.34533900
C       -0.16495500     -0.27359000     -0.14472900
H        1.33808160     -2.35681863      1.48630174
H        2.26762960     -3.13075963      0.48346974
H        1.56140100      1.31810900     -1.69455200
H        2.99240200      1.02382300     -0.68303600
H        1.86823200      3.10090200      0.08366800
H        1.70169900      1.85690700      1.31974200
H       -0.51115400      2.81911300      1.07044200
H       -0.37823400      2.83990200     -0.67732300
H       -2.74492300      1.84481100      0.43776400
H       -4.02473000     -0.24117500      0.13274300
H       -2.83890400     -2.35406100     -0.42404000
H       -0.39644700     -2.37335200     -0.59952800

B 2 1 F

--Link1--
%chk=mol_019_Z_scan_pt2.chk
%nprocshared=8
%mem=16GB
#p wB97XD/6-311+G(d,p) Geom=Check Guess=Read Stable=Opt Pop=NBO7Read Density=Current scrf=(smd,solvent=water)

mol_019_Z SP+NBO7/CMO after constrained opt at R0+0.10A  [oxime: C3=N2-O1]

1 1

$NBO CMO PRINT=2 E2PERT=0.05 BNDIDX $END

--Link1--
%chk=mol_019_Z_scan_pt3.chk
%nprocshared=8
%mem=16GB
#p wB97XD/6-311+G(d,p) opt=(ModRedundant) SCF=(Tight,XQC) NoSymm scrf=(smd,solvent=water)

mol_019_Z scan pt3 (R0+0.15A) rigid O-N displacement then constrained opt  [oxime: C3=N2-O1]

1 1
O        1.53750740     -2.50808144      0.55765411
N        2.20774100     -1.09705900     -0.02165100
C        1.30291000     -0.22553000     -0.27010500
C        1.90487400      1.08871100     -0.68078400
C        1.39898100      2.14137500      0.30693400
C       -0.11603700      2.26276400      0.21735500
C       -0.83379100      0.93777400      0.11147500
C       -2.22479900      0.91723200      0.22236100
C       -2.94402800     -0.25353100      0.04638500
C       -2.28089600     -1.44058400     -0.25664100
C       -0.90100800     -1.45279100     -0.34533900
C       -0.16495500     -0.27359000     -0.14472900
H        1.31796740     -2.39916444      1.50368711
H        2.24751540     -3.17310544      0.50085511
H        1.56140100      1.31810900     -1.69455200
H        2.99240200      1.02382300     -0.68303600
H        1.86823200      3.10090200      0.08366800
H        1.70169900      1.85690700      1.31974200
H       -0.51115400      2.81911300      1.07044200
H       -0.37823400      2.83990200     -0.67732300
H       -2.74492300      1.84481100      0.43776400
H       -4.02473000     -0.24117500      0.13274300
H       -2.83890400     -2.35406100     -0.42404000
H       -0.39644700     -2.37335200     -0.59952800

B 2 1 F

--Link1--
%chk=mol_019_Z_scan_pt3.chk
%nprocshared=8
%mem=16GB
#p wB97XD/6-311+G(d,p) Geom=Check Guess=Read Stable=Opt Pop=NBO7Read Density=Current scrf=(smd,solvent=water)

mol_019_Z SP+NBO7/CMO after constrained opt at R0+0.15A  [oxime: C3=N2-O1]

1 1

$NBO CMO PRINT=2 E2PERT=0.05 BNDIDX $END

--Link1--
%chk=mol_019_Z_scan_pt4.chk
%nprocshared=8
%mem=16GB
#p wB97XD/6-311+G(d,p) opt=(ModRedundant) SCF=(Tight,XQC) NoSymm scrf=(smd,solvent=water)

mol_019_Z scan pt4 (R0+0.20A) rigid O-N displacement then constrained opt  [oxime: C3=N2-O1]

1 1
O        1.51739320     -2.55042725      0.57503948
N        2.20774100     -1.09705900     -0.02165100
C        1.30291000     -0.22553000     -0.27010500
C        1.90487400      1.08871100     -0.68078400
C        1.39898100      2.14137500      0.30693400
C       -0.11603700      2.26276400      0.21735500
C       -0.83379100      0.93777400      0.11147500
C       -2.22479900      0.91723200      0.22236100
C       -2.94402800     -0.25353100      0.04638500
C       -2.28089600     -1.44058400     -0.25664100
C       -0.90100800     -1.45279100     -0.34533900
C       -0.16495500     -0.27359000     -0.14472900
H        1.29785320     -2.44151025      1.52107248
H        2.22740120     -3.21545125      0.51824048
H        1.56140100      1.31810900     -1.69455200
H        2.99240200      1.02382300     -0.68303600
H        1.86823200      3.10090200      0.08366800
H        1.70169900      1.85690700      1.31974200
H       -0.51115400      2.81911300      1.07044200
H       -0.37823400      2.83990200     -0.67732300
H       -2.74492300      1.84481100      0.43776400
H       -4.02473000     -0.24117500      0.13274300
H       -2.83890400     -2.35406100     -0.42404000
H       -0.39644700     -2.37335200     -0.59952800

B 2 1 F

--Link1--
%chk=mol_019_Z_scan_pt4.chk
%nprocshared=8
%mem=16GB
#p wB97XD/6-311+G(d,p) Geom=Check Guess=Read Stable=Opt Pop=NBO7Read Density=Current scrf=(smd,solvent=water)

mol_019_Z SP+NBO7/CMO after constrained opt at R0+0.20A  [oxime: C3=N2-O1]

1 1

$NBO CMO PRINT=2 E2PERT=0.05 BNDIDX $END

--Link1--
%chk=mol_019_Z_scan_pt5.chk
%nprocshared=8
%mem=16GB
#p wB97XD/6-311+G(d,p) opt=(ModRedundant) SCF=(Tight,XQC) NoSymm scrf=(smd,solvent=water)

mol_019_Z scan pt5 (R0+0.25A) rigid O-N displacement then constrained opt  [oxime: C3=N2-O1]

1 1
O        1.49727900     -2.59277307      0.59242485
N        2.20774100     -1.09705900     -0.02165100
C        1.30291000     -0.22553000     -0.27010500
C        1.90487400      1.08871100     -0.68078400
C        1.39898100      2.14137500      0.30693400
C       -0.11603700      2.26276400      0.21735500
C       -0.83379100      0.93777400      0.11147500
C       -2.22479900      0.91723200      0.22236100
C       -2.94402800     -0.25353100      0.04638500
C       -2.28089600     -1.44058400     -0.25664100
C       -0.90100800     -1.45279100     -0.34533900
C       -0.16495500     -0.27359000     -0.14472900
H        1.27773900     -2.48385607      1.53845785
H        2.20728700     -3.25779707      0.53562585
H        1.56140100      1.31810900     -1.69455200
H        2.99240200      1.02382300     -0.68303600
H        1.86823200      3.10090200      0.08366800
H        1.70169900      1.85690700      1.31974200
H       -0.51115400      2.81911300      1.07044200
H       -0.37823400      2.83990200     -0.67732300
H       -2.74492300      1.84481100      0.43776400
H       -4.02473000     -0.24117500      0.13274300
H       -2.83890400     -2.35406100     -0.42404000
H       -0.39644700     -2.37335200     -0.59952800

B 2 1 F

--Link1--
%chk=mol_019_Z_scan_pt5.chk
%nprocshared=8
%mem=16GB
#p wB97XD/6-311+G(d,p) Geom=Check Guess=Read Stable=Opt Pop=NBO7Read Density=Current scrf=(smd,solvent=water)

mol_019_Z SP+NBO7/CMO after constrained opt at R0+0.25A  [oxime: C3=N2-O1]

1 1

$NBO CMO PRINT=2 E2PERT=0.05 BNDIDX $END

--Link1--
%chk=mol_019_Z_scan_pt6.chk
%nprocshared=8
%mem=16GB
#p wB97XD/6-311+G(d,p) opt=(ModRedundant) SCF=(Tight,XQC) NoSymm scrf=(smd,solvent=water)

mol_019_Z scan pt6 (R0+0.30A) rigid O-N displacement then constrained opt  [oxime: C3=N2-O1]

1 1
O        1.47716480     -2.63511888      0.60981021
N        2.20774100     -1.09705900     -0.02165100
C        1.30291000     -0.22553000     -0.27010500
C        1.90487400      1.08871100     -0.68078400
C        1.39898100      2.14137500      0.30693400
C       -0.11603700      2.26276400      0.21735500
C       -0.83379100      0.93777400      0.11147500
C       -2.22479900      0.91723200      0.22236100
C       -2.94402800     -0.25353100      0.04638500
C       -2.28089600     -1.44058400     -0.25664100
C       -0.90100800     -1.45279100     -0.34533900
C       -0.16495500     -0.27359000     -0.14472900
H        1.25762480     -2.52620188      1.55584321
H        2.18717280     -3.30014288      0.55301121
H        1.56140100      1.31810900     -1.69455200
H        2.99240200      1.02382300     -0.68303600
H        1.86823200      3.10090200      0.08366800
H        1.70169900      1.85690700      1.31974200
H       -0.51115400      2.81911300      1.07044200
H       -0.37823400      2.83990200     -0.67732300
H       -2.74492300      1.84481100      0.43776400
H       -4.02473000     -0.24117500      0.13274300
H       -2.83890400     -2.35406100     -0.42404000
H       -0.39644700     -2.37335200     -0.59952800

B 2 1 F

--Link1--
%chk=mol_019_Z_scan_pt6.chk
%nprocshared=8
%mem=16GB
#p wB97XD/6-311+G(d,p) Geom=Check Guess=Read Stable=Opt Pop=NBO7Read Density=Current scrf=(smd,solvent=water)

mol_019_Z SP+NBO7/CMO after constrained opt at R0+0.30A  [oxime: C3=N2-O1]

1 1

$NBO CMO PRINT=2 E2PERT=0.05 BNDIDX $END


