%chk=mol_019_Z_opt.chk
%nprocshared=8
%mem=16GB
#p wB97XD/6-311+G(d,p) opt scrf=(smd,solvent=water)

mol_019_Z opt  [oxime: C3=N2-O1]

1 1
O        0.67500000      3.04930000      0.50900000
N       -0.81690000      2.41540000      0.09710000
C       -0.70780000      1.17930000     -0.19430000
C       -2.10810000      0.64190000     -0.40050000
C       -2.29620000     -0.53520000      0.54540000
C       -1.26980000     -1.61770000      0.25500000
C        0.12920000     -1.11380000      0.03140000
C        1.19180000     -2.01130000      0.05620000
C        2.47640000     -1.61250000     -0.26940000
C        2.73500000     -0.29590000     -0.63170000
C        1.70960000      0.62370000     -0.63170000
C        0.40690000      0.23850000     -0.26930000
H        0.88080000      2.68350000      1.39300000
H        0.45060000      3.99370000      0.60340000
H       -2.18350000      0.31890000     -1.43910000
H       -2.84520000      1.42400000     -0.24760000
H       -3.30010000     -0.93740000      0.42910000
H       -2.21470000     -0.18870000      1.57620000
H       -1.27140000     -2.36110000      1.05170000
H       -1.57010000     -2.15700000     -0.64780000
H        0.99830000     -3.04370000      0.31920000
H        3.28330000     -2.33180000     -0.25640000
H        3.73150000      0.00540000     -0.92020000
H        1.91570000      1.63280000     -0.95850000


