21
mol_017_Z_opt
O        2.915800     -1.172600      0.534400
N        2.484200      0.480600      0.543300
C        1.236200      0.581700      0.336800
C        0.795600      2.048700      0.339000
C       -0.651900      2.018200     -0.195200
C       -0.995400      0.569400     -0.235700
C       -2.209500     -0.020000     -0.539000
F       -3.254800      0.759800     -0.841100
C       -2.358600     -1.395800     -0.533300
C       -1.275800     -2.208500     -0.218200
C       -0.043600     -1.663200      0.086300
C        0.087300     -0.272000      0.068400
H        3.578100     -1.176700      1.251600
H        3.396100     -1.254000     -0.312200
H        0.839000      2.416100      1.360700
H        1.463800      2.669300     -0.248500
H       -0.713900      2.457200     -1.190100
H       -1.337600      2.583900      0.431500
H       -3.320200     -1.824500     -0.771600
H       -1.406300     -3.279700     -0.209700
H        0.771900     -2.317900      0.342400
