%chk=mol_019_E_scan_pt1.chk
%nprocshared=8
%mem=16GB
#p wB97XD/6-311+G(d,p) opt=(ModRedundant) SCF=(Tight,XQC) NoSymm scrf=(smd,solvent=water)

mol_019_E scan pt1 (R0+0.05A) rigid O-N displacement then constrained opt  [oxime: C3=N2-O1]

1 1
O       -3.28102266     -1.14391156     -0.24099895
N       -1.75227400     -1.40137500     -0.21309100
C       -1.15277600     -0.28991200      0.01727000
C       -1.83068600      1.03942200      0.18755800
C       -0.86243000      2.16383500      0.53111400
C        0.36539900      2.10272400     -0.36908100
C        1.06441000      0.78245500     -0.19080700
C        2.45478300      0.68775400     -0.23324000
C        3.09409600     -0.52805200     -0.03899700
C        2.35081700     -1.67948900      0.21505100
C        0.96956800     -1.60846400      0.25625200
C        0.32067700     -0.38515200      0.04311400
H       -3.65984766     -1.88138256     -0.75206295
H       -3.65267066     -1.19462556      0.66112605
H       -2.34158500      1.25000100     -0.75913100
H       -2.60832100      0.94389600      0.94881300
H       -0.55136600      2.08052000      1.57695300
H       -1.37804200      3.11874800      0.41659300
H        0.05869400      2.21742300     -1.41606700
H        1.05819200      2.91595500     -0.14578100
H        3.03723300      1.58539100     -0.41185300
H        4.17680600     -0.57811200     -0.07024000
H        2.84956000     -2.62606900      0.38638400
H        0.38932500     -2.49853700      0.46648400

B 2 1 F

--Link1--
%chk=mol_019_E_scan_pt1.chk
%nprocshared=8
%mem=16GB
#p wB97XD/6-311+G(d,p) Geom=Check Guess=Read Stable=Opt Pop=NBO7Read Density=Current scrf=(smd,solvent=water)

mol_019_E SP+NBO7/CMO after constrained opt at R0+0.05A  [oxime: C3=N2-O1]

1 1

$NBO CMO PRINT=2 E2PERT=0.05 BNDIDX $END

--Link1--
%chk=mol_019_E_scan_pt2.chk
%nprocshared=8
%mem=16GB
#p wB97XD/6-311+G(d,p) opt=(ModRedundant) SCF=(Tight,XQC) NoSymm scrf=(smd,solvent=water)

mol_019_E scan pt2 (R0+0.10A) rigid O-N displacement then constrained opt  [oxime: C3=N2-O1]

1 1
O       -3.33032033     -1.13560912     -0.24189890
N       -1.75227400     -1.40137500     -0.21309100
C       -1.15277600     -0.28991200      0.01727000
C       -1.83068600      1.03942200      0.18755800
C       -0.86243000      2.16383500      0.53111400
C        0.36539900      2.10272400     -0.36908100
C        1.06441000      0.78245500     -0.19080700
C        2.45478300      0.68775400     -0.23324000
C        3.09409600     -0.52805200     -0.03899700
C        2.35081700     -1.67948900      0.21505100
C        0.96956800     -1.60846400      0.25625200
C        0.32067700     -0.38515200      0.04311400
H       -3.70914533     -1.87308012     -0.75296290
H       -3.70196833     -1.18632312      0.66022610
H       -2.34158500      1.25000100     -0.75913100
H       -2.60832100      0.94389600      0.94881300
H       -0.55136600      2.08052000      1.57695300
H       -1.37804200      3.11874800      0.41659300
H        0.05869400      2.21742300     -1.41606700
H        1.05819200      2.91595500     -0.14578100
H        3.03723300      1.58539100     -0.41185300
H        4.17680600     -0.57811200     -0.07024000
H        2.84956000     -2.62606900      0.38638400
H        0.38932500     -2.49853700      0.46648400

B 2 1 F

--Link1--
%chk=mol_019_E_scan_pt2.chk
%nprocshared=8
%mem=16GB
#p wB97XD/6-311+G(d,p) Geom=Check Guess=Read Stable=Opt Pop=NBO7Read Density=Current scrf=(smd,solvent=water)

mol_019_E SP+NBO7/CMO after constrained opt at R0+0.10A  [oxime: C3=N2-O1]

1 1

$NBO CMO PRINT=2 E2PERT=0.05 BNDIDX $END

--Link1--
%chk=mol_019_E_scan_pt3.chk
%nprocshared=8
%mem=16GB
#p wB97XD/6-311+G(d,p) opt=(ModRedundant) SCF=(Tight,XQC) NoSymm scrf=(smd,solvent=water)

mol_019_E scan pt3 (R0+0.15A) rigid O-N displacement then constrained opt  [oxime: C3=N2-O1]

1 1
O       -3.37961799     -1.12730668     -0.24279885
N       -1.75227400     -1.40137500     -0.21309100
C       -1.15277600     -0.28991200      0.01727000
C       -1.83068600      1.03942200      0.18755800
C       -0.86243000      2.16383500      0.53111400
C        0.36539900      2.10272400     -0.36908100
C        1.06441000      0.78245500     -0.19080700
C        2.45478300      0.68775400     -0.23324000
C        3.09409600     -0.52805200     -0.03899700
C        2.35081700     -1.67948900      0.21505100
C        0.96956800     -1.60846400      0.25625200
C        0.32067700     -0.38515200      0.04311400
H       -3.75844299     -1.86477768     -0.75386285
H       -3.75126599     -1.17802068      0.65932615
H       -2.34158500      1.25000100     -0.75913100
H       -2.60832100      0.94389600      0.94881300
H       -0.55136600      2.08052000      1.57695300
H       -1.37804200      3.11874800      0.41659300
H        0.05869400      2.21742300     -1.41606700
H        1.05819200      2.91595500     -0.14578100
H        3.03723300      1.58539100     -0.41185300
H        4.17680600     -0.57811200     -0.07024000
H        2.84956000     -2.62606900      0.38638400
H        0.38932500     -2.49853700      0.46648400

B 2 1 F

--Link1--
%chk=mol_019_E_scan_pt3.chk
%nprocshared=8
%mem=16GB
#p wB97XD/6-311+G(d,p) Geom=Check Guess=Read Stable=Opt Pop=NBO7Read Density=Current scrf=(smd,solvent=water)

mol_019_E SP+NBO7/CMO after constrained opt at R0+0.15A  [oxime: C3=N2-O1]

1 1

$NBO CMO PRINT=2 E2PERT=0.05 BNDIDX $END

--Link1--
%chk=mol_019_E_scan_pt4.chk
%nprocshared=8
%mem=16GB
#p wB97XD/6-311+G(d,p) opt=(ModRedundant) SCF=(Tight,XQC) NoSymm scrf=(smd,solvent=water)

mol_019_E scan pt4 (R0+0.20A) rigid O-N displacement then constrained opt  [oxime: C3=N2-O1]

1 1
O       -3.42891565     -1.11900424     -0.24369880
N       -1.75227400     -1.40137500     -0.21309100
C       -1.15277600     -0.28991200      0.01727000
C       -1.83068600      1.03942200      0.18755800
C       -0.86243000      2.16383500      0.53111400
C        0.36539900      2.10272400     -0.36908100
C        1.06441000      0.78245500     -0.19080700
C        2.45478300      0.68775400     -0.23324000
C        3.09409600     -0.52805200     -0.03899700
C        2.35081700     -1.67948900      0.21505100
C        0.96956800     -1.60846400      0.25625200
C        0.32067700     -0.38515200      0.04311400
H       -3.80774065     -1.85647524     -0.75476280
H       -3.80056365     -1.16971824      0.65842620
H       -2.34158500      1.25000100     -0.75913100
H       -2.60832100      0.94389600      0.94881300
H       -0.55136600      2.08052000      1.57695300
H       -1.37804200      3.11874800      0.41659300
H        0.05869400      2.21742300     -1.41606700
H        1.05819200      2.91595500     -0.14578100
H        3.03723300      1.58539100     -0.41185300
H        4.17680600     -0.57811200     -0.07024000
H        2.84956000     -2.62606900      0.38638400
H        0.38932500     -2.49853700      0.46648400

B 2 1 F

--Link1--
%chk=mol_019_E_scan_pt4.chk
%nprocshared=8
%mem=16GB
#p wB97XD/6-311+G(d,p) Geom=Check Guess=Read Stable=Opt Pop=NBO7Read Density=Current scrf=(smd,solvent=water)

mol_019_E SP+NBO7/CMO after constrained opt at R0+0.20A  [oxime: C3=N2-O1]

1 1

$NBO CMO PRINT=2 E2PERT=0.05 BNDIDX $END

--Link1--
%chk=mol_019_E_scan_pt5.chk
%nprocshared=8
%mem=16GB
#p wB97XD/6-311+G(d,p) opt=(ModRedundant) SCF=(Tight,XQC) NoSymm scrf=(smd,solvent=water)

mol_019_E scan pt5 (R0+0.25A) rigid O-N displacement then constrained opt  [oxime: C3=N2-O1]

1 1
O       -3.47821331     -1.11070179     -0.24459875
N       -1.75227400     -1.40137500     -0.21309100
C       -1.15277600     -0.28991200      0.01727000
C       -1.83068600      1.03942200      0.18755800
C       -0.86243000      2.16383500      0.53111400
C        0.36539900      2.10272400     -0.36908100
C        1.06441000      0.78245500     -0.19080700
C        2.45478300      0.68775400     -0.23324000
C        3.09409600     -0.52805200     -0.03899700
C        2.35081700     -1.67948900      0.21505100
C        0.96956800     -1.60846400      0.25625200
C        0.32067700     -0.38515200      0.04311400
H       -3.85703831     -1.84817279     -0.75566275
H       -3.84986131     -1.16141579      0.65752625
H       -2.34158500      1.25000100     -0.75913100
H       -2.60832100      0.94389600      0.94881300
H       -0.55136600      2.08052000      1.57695300
H       -1.37804200      3.11874800      0.41659300
H        0.05869400      2.21742300     -1.41606700
H        1.05819200      2.91595500     -0.14578100
H        3.03723300      1.58539100     -0.41185300
H        4.17680600     -0.57811200     -0.07024000
H        2.84956000     -2.62606900      0.38638400
H        0.38932500     -2.49853700      0.46648400

B 2 1 F

--Link1--
%chk=mol_019_E_scan_pt5.chk
%nprocshared=8
%mem=16GB
#p wB97XD/6-311+G(d,p) Geom=Check Guess=Read Stable=Opt Pop=NBO7Read Density=Current scrf=(smd,solvent=water)

mol_019_E SP+NBO7/CMO after constrained opt at R0+0.25A  [oxime: C3=N2-O1]

1 1

$NBO CMO PRINT=2 E2PERT=0.05 BNDIDX $END

--Link1--
%chk=mol_019_E_scan_pt6.chk
%nprocshared=8
%mem=16GB
#p wB97XD/6-311+G(d,p) opt=(ModRedundant) SCF=(Tight,XQC) NoSymm scrf=(smd,solvent=water)

mol_019_E scan pt6 (R0+0.30A) rigid O-N displacement then constrained opt  [oxime: C3=N2-O1]

1 1
O       -3.52751098     -1.10239935     -0.24549870
N       -1.75227400     -1.40137500     -0.21309100
C       -1.15277600     -0.28991200      0.01727000
C       -1.83068600      1.03942200      0.18755800
C       -0.86243000      2.16383500      0.53111400
C        0.36539900      2.10272400     -0.36908100
C        1.06441000      0.78245500     -0.19080700
C        2.45478300      0.68775400     -0.23324000
C        3.09409600     -0.52805200     -0.03899700
C        2.35081700     -1.67948900      0.21505100
C        0.96956800     -1.60846400      0.25625200
C        0.32067700     -0.38515200      0.04311400
H       -3.90633598     -1.83987035     -0.75656270
H       -3.89915898     -1.15311335      0.65662630
H       -2.34158500      1.25000100     -0.75913100
H       -2.60832100      0.94389600      0.94881300
H       -0.55136600      2.08052000      1.57695300
H       -1.37804200      3.11874800      0.41659300
H        0.05869400      2.21742300     -1.41606700
H        1.05819200      2.91595500     -0.14578100
H        3.03723300      1.58539100     -0.41185300
H        4.17680600     -0.57811200     -0.07024000
H        2.84956000     -2.62606900      0.38638400
H        0.38932500     -2.49853700      0.46648400

B 2 1 F

--Link1--
%chk=mol_019_E_scan_pt6.chk
%nprocshared=8
%mem=16GB
#p wB97XD/6-311+G(d,p) Geom=Check Guess=Read Stable=Opt Pop=NBO7Read Density=Current scrf=(smd,solvent=water)

mol_019_E SP+NBO7/CMO after constrained opt at R0+0.30A  [oxime: C3=N2-O1]

1 1

$NBO CMO PRINT=2 E2PERT=0.05 BNDIDX $END


