%chk=mol_019_E_opt.chk
%nprocshared=8
%mem=16GB
#p wB97XD/6-311+G(d,p) opt scrf=(smd,solvent=water)

mol_019_E opt  [oxime: C3=N2-O1]

1 1
O       -3.00360000     -1.95310000     -0.54150000
N       -1.31440000     -1.88210000     -0.44850000
C       -0.99760000     -0.68690000     -0.13070000
C       -1.92860000      0.45360000      0.16400000
C       -1.22810000      1.62390000      0.82950000
C        0.03310000      1.98820000      0.07310000
C        0.96710000      0.82240000     -0.01040000
C        2.34490000      1.00940000      0.00140000
C        3.21300000     -0.06740000     -0.07220000
C        2.71610000     -1.36500000     -0.16120000
C        1.35520000     -1.57860000     -0.18010000
C        0.46830000     -0.49150000     -0.10210000
H       -3.10920000     -2.39380000     -1.40650000
H       -3.19840000     -2.62040000      0.14460000
H       -2.34710000      0.74630000     -0.80050000
H       -2.76080000      0.09090000      0.76270000
H       -0.97850000      1.36690000      1.85910000
H       -1.91240000      2.46660000      0.86310000
H       -0.22920000      2.31430000     -0.93820000
H        0.51950000      2.83710000      0.54700000
H        2.74000000      2.01390000      0.07410000
H        4.28100000      0.09880000     -0.06010000
H        3.39560000     -2.20350000     -0.21710000
H        0.97410000     -2.59000000     -0.24960000


