26
mol_023_Z_opt
O        4.175300     -1.853600     -0.425200
N        3.954900     -0.674000     -0.194700
O        4.797200      0.206300     -0.088900
C        2.534400     -0.271100     -0.028100
C        2.253300      1.055300      0.254700
C        0.934800      1.429600      0.381600
C       -0.089300      0.484600      0.224000
C        0.215100     -0.876000      0.015100
C        1.550400     -1.230000     -0.146200
C       -0.830400     -1.953200      0.030800
C       -2.258900     -1.459300     -0.131100
C       -2.492300     -0.223900      0.727500
C       -1.509900      0.838200      0.272500
N       -2.187100      1.854600     -0.070800
O       -1.182900      3.021600     -0.780600
H        3.054400      1.766200      0.370600
H        0.711600      2.454800      0.635600
H        1.828900     -2.253600     -0.347200
H       -0.594300     -2.700400     -0.726300
H       -0.735000     -2.471200      0.989100
H       -2.473500     -1.224600     -1.174000
H       -2.954400     -2.243100      0.160100
H       -3.513500      0.142600      0.671800
H       -2.276900     -0.434600      1.775800
H       -1.178200      2.795200     -1.732100
H       -1.733200      3.819400     -0.664000
