21
mol_017_E_opt
O        3.326500      1.281300     -0.424900
N        1.721500      1.601600     -0.131800
C        1.119300      0.476600     -0.136200
C        1.620100     -0.925900     -0.345900
C        0.379000     -1.822900     -0.224400
C       -0.744100     -0.869500      0.042400
C       -2.086200     -1.134500      0.232900
F       -2.521800     -2.402500      0.186100
C       -2.987300     -0.107300      0.471500
C       -2.540600      1.210500      0.521200
C       -1.205000      1.524600      0.335800
C       -0.324400      0.468200      0.097200
H        3.495700      1.852700     -1.199400
H        3.749700      1.710700      0.344300
H        2.102500     -0.988400     -1.319400
H        2.384300     -1.145300      0.397100
H        0.203800     -2.392200     -1.134100
H        0.482000     -2.544000      0.583000
H       -4.032700     -0.339800      0.617400
H       -3.261000      1.992300      0.708600
H       -0.881300      2.553800      0.378900
