23
mol_008_Z_opt
O        4.367700     -0.787600     -0.218500
N        3.798300      0.269100      0.007400
O        4.341800      1.344600      0.210000
C        2.309300      0.245500      0.039400
C        1.643300      1.436200      0.297600
C        0.265500      1.436600      0.332500
C       -0.412600      0.238300      0.098000
C        0.281700     -0.959000     -0.152500
C        1.666400     -0.956100     -0.183600
C       -0.631300     -2.114600     -0.373700
C       -2.034200     -1.573900     -0.021300
C       -1.838400     -0.059400      0.069700
N       -2.947100      0.557300      0.065200
O       -2.653600      2.227400      0.160300
H        2.207800      2.336300      0.471100
H       -0.243300      2.360200      0.555000
H        2.246900     -1.846000     -0.370300
H       -0.349200     -2.980400      0.221000
H       -0.591200     -2.434700     -1.414900
H       -2.802100     -1.847000     -0.737100
H       -2.364500     -1.929500      0.951700
H       -2.897400      2.540300     -0.733200
H       -3.363500      2.496200      0.775100
