23
mol_008_E_opt
O       -4.560100     -0.533700     -0.051000
N       -3.979300      0.540100      0.017600
O       -4.510100      1.638300      0.095400
C       -2.490400      0.504200      0.004800
C       -1.798100      1.708800      0.079800
C       -0.415900      1.700400      0.066800
C        0.231500      0.466100     -0.022800
C       -0.480800     -0.741500     -0.094800
C       -1.863600     -0.727600     -0.082100
C        0.422800     -1.930100     -0.177000
C        1.846200     -1.345000     -0.179600
C        1.658900      0.141900     -0.065100
N        2.490400      1.109200     -0.006200
O        3.999400      0.451800     -0.081700
H       -2.351900      2.631800      0.146900
H        0.114800      2.639100      0.125800
H       -2.457300     -1.626600     -0.137100
H        0.266200     -2.596500      0.668300
H        0.224900     -2.514000     -1.072700
H        2.396900     -1.561200     -1.092900
H        2.458500     -1.698100      0.647300
H        4.386600      0.935700     -0.838400
H        4.410500      0.806700      0.731900
