%chk=mol_001_E_scan_pt1.chk
%nprocshared=8
%mem=16GB
#p wB97XD/6-311+G(d,p) opt=(ModRedundant) SCF=(Tight,XQC) NoSymm scrf=(smd,solvent=water)

mol_001_E scan pt1 (R0+0.05A) rigid O-N displacement then constrained opt  [oxime: C3=N2-O1]

1 1
O       -3.43029289     -0.56225182     -0.00034316
N       -1.97892700     -1.13293600     -0.01141100
C       -1.18117500     -0.13092700     -0.00512800
C       -1.47200200      1.34121700      0.00229200
C       -0.09348300      2.02895600     -0.00545300
C        0.89553500      0.89785700     -0.00294300
C        2.28526100      0.96076600      0.00121700
C        3.00869700     -0.22467800      0.00462900
C        2.36598300     -1.46865300      0.00365800
C        0.98375800     -1.54214800     -0.00081500
C        0.26325600     -0.34607800     -0.00413300
H       -3.91719989     -0.99795182     -0.72434716
H       -3.84651589     -0.84513782      0.83560884
H       -2.07753600      1.59340800     -0.87043200
H       -2.06238900      1.58794700      0.88702600
H        0.03593800      2.65648700     -0.88960400
H        0.04176300      2.66726000      0.86990500
H        2.79456900      1.91777300      0.00255400
H        4.09247600     -0.18849100      0.00885000
H        2.95584200     -2.37755500      0.00720100
H        0.47759800     -2.50008900     -0.00053500

B 2 1 F

--Link1--
%chk=mol_001_E_scan_pt1.chk
%nprocshared=8
%mem=16GB
#p wB97XD/6-311+G(d,p) Geom=Check Guess=Read Stable=Opt Pop=NBO7Read Density=Current scrf=(smd,solvent=water)

mol_001_E SP+NBO7/CMO after constrained opt at R0+0.05A  [oxime: C3=N2-O1]

1 1

$NBO CMO PRINT=2 E2PERT=0.05 BNDIDX $END

--Link1--
%chk=mol_001_E_scan_pt2.chk
%nprocshared=8
%mem=16GB
#p wB97XD/6-311+G(d,p) opt=(ModRedundant) SCF=(Tight,XQC) NoSymm scrf=(smd,solvent=water)

mol_001_E scan pt2 (R0+0.10A) rigid O-N displacement then constrained opt  [oxime: C3=N2-O1]

1 1
O       -3.47682379     -0.54395565      0.00001167
N       -1.97892700     -1.13293600     -0.01141100
C       -1.18117500     -0.13092700     -0.00512800
C       -1.47200200      1.34121700      0.00229200
C       -0.09348300      2.02895600     -0.00545300
C        0.89553500      0.89785700     -0.00294300
C        2.28526100      0.96076600      0.00121700
C        3.00869700     -0.22467800      0.00462900
C        2.36598300     -1.46865300      0.00365800
C        0.98375800     -1.54214800     -0.00081500
C        0.26325600     -0.34607800     -0.00413300
H       -3.96373079     -0.97965565     -0.72399233
H       -3.89304679     -0.82684165      0.83596367
H       -2.07753600      1.59340800     -0.87043200
H       -2.06238900      1.58794700      0.88702600
H        0.03593800      2.65648700     -0.88960400
H        0.04176300      2.66726000      0.86990500
H        2.79456900      1.91777300      0.00255400
H        4.09247600     -0.18849100      0.00885000
H        2.95584200     -2.37755500      0.00720100
H        0.47759800     -2.50008900     -0.00053500

B 2 1 F

--Link1--
%chk=mol_001_E_scan_pt2.chk
%nprocshared=8
%mem=16GB
#p wB97XD/6-311+G(d,p) Geom=Check Guess=Read Stable=Opt Pop=NBO7Read Density=Current scrf=(smd,solvent=water)

mol_001_E SP+NBO7/CMO after constrained opt at R0+0.10A  [oxime: C3=N2-O1]

1 1

$NBO CMO PRINT=2 E2PERT=0.05 BNDIDX $END

--Link1--
%chk=mol_001_E_scan_pt3.chk
%nprocshared=8
%mem=16GB
#p wB97XD/6-311+G(d,p) opt=(ModRedundant) SCF=(Tight,XQC) NoSymm scrf=(smd,solvent=water)

mol_001_E scan pt3 (R0+0.15A) rigid O-N displacement then constrained opt  [oxime: C3=N2-O1]

1 1
O       -3.52335468     -0.52565947      0.00036651
N       -1.97892700     -1.13293600     -0.01141100
C       -1.18117500     -0.13092700     -0.00512800
C       -1.47200200      1.34121700      0.00229200
C       -0.09348300      2.02895600     -0.00545300
C        0.89553500      0.89785700     -0.00294300
C        2.28526100      0.96076600      0.00121700
C        3.00869700     -0.22467800      0.00462900
C        2.36598300     -1.46865300      0.00365800
C        0.98375800     -1.54214800     -0.00081500
C        0.26325600     -0.34607800     -0.00413300
H       -4.01026168     -0.96135947     -0.72363749
H       -3.93957768     -0.80854547      0.83631851
H       -2.07753600      1.59340800     -0.87043200
H       -2.06238900      1.58794700      0.88702600
H        0.03593800      2.65648700     -0.88960400
H        0.04176300      2.66726000      0.86990500
H        2.79456900      1.91777300      0.00255400
H        4.09247600     -0.18849100      0.00885000
H        2.95584200     -2.37755500      0.00720100
H        0.47759800     -2.50008900     -0.00053500

B 2 1 F

--Link1--
%chk=mol_001_E_scan_pt3.chk
%nprocshared=8
%mem=16GB
#p wB97XD/6-311+G(d,p) Geom=Check Guess=Read Stable=Opt Pop=NBO7Read Density=Current scrf=(smd,solvent=water)

mol_001_E SP+NBO7/CMO after constrained opt at R0+0.15A  [oxime: C3=N2-O1]

1 1

$NBO CMO PRINT=2 E2PERT=0.05 BNDIDX $END

--Link1--
%chk=mol_001_E_scan_pt4.chk
%nprocshared=8
%mem=16GB
#p wB97XD/6-311+G(d,p) opt=(ModRedundant) SCF=(Tight,XQC) NoSymm scrf=(smd,solvent=water)

mol_001_E scan pt4 (R0+0.20A) rigid O-N displacement then constrained opt  [oxime: C3=N2-O1]

1 1
O       -3.56988557     -0.50736330      0.00072134
N       -1.97892700     -1.13293600     -0.01141100
C       -1.18117500     -0.13092700     -0.00512800
C       -1.47200200      1.34121700      0.00229200
C       -0.09348300      2.02895600     -0.00545300
C        0.89553500      0.89785700     -0.00294300
C        2.28526100      0.96076600      0.00121700
C        3.00869700     -0.22467800      0.00462900
C        2.36598300     -1.46865300      0.00365800
C        0.98375800     -1.54214800     -0.00081500
C        0.26325600     -0.34607800     -0.00413300
H       -4.05679257     -0.94306330     -0.72328266
H       -3.98610857     -0.79024930      0.83667334
H       -2.07753600      1.59340800     -0.87043200
H       -2.06238900      1.58794700      0.88702600
H        0.03593800      2.65648700     -0.88960400
H        0.04176300      2.66726000      0.86990500
H        2.79456900      1.91777300      0.00255400
H        4.09247600     -0.18849100      0.00885000
H        2.95584200     -2.37755500      0.00720100
H        0.47759800     -2.50008900     -0.00053500

B 2 1 F

--Link1--
%chk=mol_001_E_scan_pt4.chk
%nprocshared=8
%mem=16GB
#p wB97XD/6-311+G(d,p) Geom=Check Guess=Read Stable=Opt Pop=NBO7Read Density=Current scrf=(smd,solvent=water)

mol_001_E SP+NBO7/CMO after constrained opt at R0+0.20A  [oxime: C3=N2-O1]

1 1

$NBO CMO PRINT=2 E2PERT=0.05 BNDIDX $END

--Link1--
%chk=mol_001_E_scan_pt5.chk
%nprocshared=8
%mem=16GB
#p wB97XD/6-311+G(d,p) opt=(ModRedundant) SCF=(Tight,XQC) NoSymm scrf=(smd,solvent=water)

mol_001_E scan pt5 (R0+0.25A) rigid O-N displacement then constrained opt  [oxime: C3=N2-O1]

1 1
O       -3.61641647     -0.48906712      0.00107618
N       -1.97892700     -1.13293600     -0.01141100
C       -1.18117500     -0.13092700     -0.00512800
C       -1.47200200      1.34121700      0.00229200
C       -0.09348300      2.02895600     -0.00545300
C        0.89553500      0.89785700     -0.00294300
C        2.28526100      0.96076600      0.00121700
C        3.00869700     -0.22467800      0.00462900
C        2.36598300     -1.46865300      0.00365800
C        0.98375800     -1.54214800     -0.00081500
C        0.26325600     -0.34607800     -0.00413300
H       -4.10332347     -0.92476712     -0.72292782
H       -4.03263947     -0.77195312      0.83702818
H       -2.07753600      1.59340800     -0.87043200
H       -2.06238900      1.58794700      0.88702600
H        0.03593800      2.65648700     -0.88960400
H        0.04176300      2.66726000      0.86990500
H        2.79456900      1.91777300      0.00255400
H        4.09247600     -0.18849100      0.00885000
H        2.95584200     -2.37755500      0.00720100
H        0.47759800     -2.50008900     -0.00053500

B 2 1 F

--Link1--
%chk=mol_001_E_scan_pt5.chk
%nprocshared=8
%mem=16GB
#p wB97XD/6-311+G(d,p) Geom=Check Guess=Read Stable=Opt Pop=NBO7Read Density=Current scrf=(smd,solvent=water)

mol_001_E SP+NBO7/CMO after constrained opt at R0+0.25A  [oxime: C3=N2-O1]

1 1

$NBO CMO PRINT=2 E2PERT=0.05 BNDIDX $END

--Link1--
%chk=mol_001_E_scan_pt6.chk
%nprocshared=8
%mem=16GB
#p wB97XD/6-311+G(d,p) opt=(ModRedundant) SCF=(Tight,XQC) NoSymm scrf=(smd,solvent=water)

mol_001_E scan pt6 (R0+0.30A) rigid O-N displacement then constrained opt  [oxime: C3=N2-O1]

1 1
O       -3.66294736     -0.47077095      0.00143101
N       -1.97892700     -1.13293600     -0.01141100
C       -1.18117500     -0.13092700     -0.00512800
C       -1.47200200      1.34121700      0.00229200
C       -0.09348300      2.02895600     -0.00545300
C        0.89553500      0.89785700     -0.00294300
C        2.28526100      0.96076600      0.00121700
C        3.00869700     -0.22467800      0.00462900
C        2.36598300     -1.46865300      0.00365800
C        0.98375800     -1.54214800     -0.00081500
C        0.26325600     -0.34607800     -0.00413300
H       -4.14985436     -0.90647095     -0.72257299
H       -4.07917036     -0.75365695      0.83738301
H       -2.07753600      1.59340800     -0.87043200
H       -2.06238900      1.58794700      0.88702600
H        0.03593800      2.65648700     -0.88960400
H        0.04176300      2.66726000      0.86990500
H        2.79456900      1.91777300      0.00255400
H        4.09247600     -0.18849100      0.00885000
H        2.95584200     -2.37755500      0.00720100
H        0.47759800     -2.50008900     -0.00053500

B 2 1 F

--Link1--
%chk=mol_001_E_scan_pt6.chk
%nprocshared=8
%mem=16GB
#p wB97XD/6-311+G(d,p) Geom=Check Guess=Read Stable=Opt Pop=NBO7Read Density=Current scrf=(smd,solvent=water)

mol_001_E SP+NBO7/CMO after constrained opt at R0+0.30A  [oxime: C3=N2-O1]

1 1

$NBO CMO PRINT=2 E2PERT=0.05 BNDIDX $END


