21
mol_014_E_opt
O       -3.273300      1.124400      0.857000
N       -1.677200      1.479600      0.714400
C       -1.098500      0.414900      0.295400
C       -1.644700     -0.946200     -0.038500
C       -0.432000     -1.770600     -0.490300
C        0.735000     -0.837800     -0.375500
C        2.064600     -1.082300     -0.651300
C        2.981300     -0.052300     -0.471200
C        2.601800      1.210800     -0.024200
C        1.272200      1.452400      0.251200
F        0.887200      2.657800      0.680600
C        0.333200      0.429900      0.078200
H       -3.679600      1.822400      0.307000
H       -3.444100      1.357200      1.790500
H       -2.137600     -1.355000      0.841700
H       -2.407300     -0.845500     -0.808500
H       -0.289700     -2.649400      0.132900
H       -0.546100     -2.122500     -1.512400
H        2.393100     -2.050400     -0.999700
H        4.025900     -0.230000     -0.683000
H        3.335700      1.992500      0.106100
