%chk=mol_011_E_scan_pt1.chk
%nprocshared=8
%mem=16GB
#p wB97XD/6-311+G(d,p) opt=(ModRedundant) SCF=(Tight,XQC) NoSymm scrf=(smd,solvent=water)

mol_011_E scan pt1 (R0+0.05A) rigid O-N displacement then constrained opt  [oxime: C3=N2-O1]

1 1
O       -3.54599235     -1.14251340      0.00470411
N       -2.00706200     -1.37677900      0.00918400
C       -1.45280100     -0.22270900      0.00415400
C       -2.06234000      1.14799300     -0.00094900
C       -0.87186100      2.12523600      0.00318200
C        0.34297000      1.24167800      0.00215200
C        1.68524800      1.61166100      0.00003300
C        2.65885200      0.62474000     -0.00176100
C        2.27653700     -0.71331900     -0.00123200
F        3.24922100     -1.65188600     -0.00358600
C        0.96413500     -1.12343200      0.00096300
C        0.00421400     -0.11012400      0.00274300
H       -3.89231735     -1.48867840     -0.83941589
H       -3.92055835     -1.69625140      0.71510511
H       -2.69618400      1.25718300     -0.88328500
H       -2.70569100      1.25827400      0.87423300
H       -0.88283000      2.77418800     -0.87461700
H       -0.88486300      2.76830700      0.88536400
H        1.97224300      2.65646500     -0.00069700
H        3.71296300      0.87524400     -0.00407000
H        0.70759600     -2.17528900      0.00058500

B 2 1 F

--Link1--
%chk=mol_011_E_scan_pt1.chk
%nprocshared=8
%mem=16GB
#p wB97XD/6-311+G(d,p) Geom=Check Guess=Read Stable=Opt Pop=NBO7Read Density=Current scrf=(smd,solvent=water)

mol_011_E SP+NBO7/CMO after constrained opt at R0+0.05A  [oxime: C3=N2-O1]

1 1

$NBO CMO PRINT=2 E2PERT=0.05 BNDIDX $END

--Link1--
%chk=mol_011_E_scan_pt2.chk
%nprocshared=8
%mem=16GB
#p wB97XD/6-311+G(d,p) opt=(ModRedundant) SCF=(Tight,XQC) NoSymm scrf=(smd,solvent=water)

mol_011_E scan pt2 (R0+0.10A) rigid O-N displacement then constrained opt  [oxime: C3=N2-O1]

1 1
O       -3.59542270     -1.13498881      0.00456021
N       -2.00706200     -1.37677900      0.00918400
C       -1.45280100     -0.22270900      0.00415400
C       -2.06234000      1.14799300     -0.00094900
C       -0.87186100      2.12523600      0.00318200
C        0.34297000      1.24167800      0.00215200
C        1.68524800      1.61166100      0.00003300
C        2.65885200      0.62474000     -0.00176100
C        2.27653700     -0.71331900     -0.00123200
F        3.24922100     -1.65188600     -0.00358600
C        0.96413500     -1.12343200      0.00096300
C        0.00421400     -0.11012400      0.00274300
H       -3.94174770     -1.48115381     -0.83955979
H       -3.96998870     -1.68872681      0.71496121
H       -2.69618400      1.25718300     -0.88328500
H       -2.70569100      1.25827400      0.87423300
H       -0.88283000      2.77418800     -0.87461700
H       -0.88486300      2.76830700      0.88536400
H        1.97224300      2.65646500     -0.00069700
H        3.71296300      0.87524400     -0.00407000
H        0.70759600     -2.17528900      0.00058500

B 2 1 F

--Link1--
%chk=mol_011_E_scan_pt2.chk
%nprocshared=8
%mem=16GB
#p wB97XD/6-311+G(d,p) Geom=Check Guess=Read Stable=Opt Pop=NBO7Read Density=Current scrf=(smd,solvent=water)

mol_011_E SP+NBO7/CMO after constrained opt at R0+0.10A  [oxime: C3=N2-O1]

1 1

$NBO CMO PRINT=2 E2PERT=0.05 BNDIDX $END

--Link1--
%chk=mol_011_E_scan_pt3.chk
%nprocshared=8
%mem=16GB
#p wB97XD/6-311+G(d,p) opt=(ModRedundant) SCF=(Tight,XQC) NoSymm scrf=(smd,solvent=water)

mol_011_E scan pt3 (R0+0.15A) rigid O-N displacement then constrained opt  [oxime: C3=N2-O1]

1 1
O       -3.64485306     -1.12746421      0.00441632
N       -2.00706200     -1.37677900      0.00918400
C       -1.45280100     -0.22270900      0.00415400
C       -2.06234000      1.14799300     -0.00094900
C       -0.87186100      2.12523600      0.00318200
C        0.34297000      1.24167800      0.00215200
C        1.68524800      1.61166100      0.00003300
C        2.65885200      0.62474000     -0.00176100
C        2.27653700     -0.71331900     -0.00123200
F        3.24922100     -1.65188600     -0.00358600
C        0.96413500     -1.12343200      0.00096300
C        0.00421400     -0.11012400      0.00274300
H       -3.99117806     -1.47362921     -0.83970368
H       -4.01941906     -1.68120221      0.71481732
H       -2.69618400      1.25718300     -0.88328500
H       -2.70569100      1.25827400      0.87423300
H       -0.88283000      2.77418800     -0.87461700
H       -0.88486300      2.76830700      0.88536400
H        1.97224300      2.65646500     -0.00069700
H        3.71296300      0.87524400     -0.00407000
H        0.70759600     -2.17528900      0.00058500

B 2 1 F

--Link1--
%chk=mol_011_E_scan_pt3.chk
%nprocshared=8
%mem=16GB
#p wB97XD/6-311+G(d,p) Geom=Check Guess=Read Stable=Opt Pop=NBO7Read Density=Current scrf=(smd,solvent=water)

mol_011_E SP+NBO7/CMO after constrained opt at R0+0.15A  [oxime: C3=N2-O1]

1 1

$NBO CMO PRINT=2 E2PERT=0.05 BNDIDX $END

--Link1--
%chk=mol_011_E_scan_pt4.chk
%nprocshared=8
%mem=16GB
#p wB97XD/6-311+G(d,p) opt=(ModRedundant) SCF=(Tight,XQC) NoSymm scrf=(smd,solvent=water)

mol_011_E scan pt4 (R0+0.20A) rigid O-N displacement then constrained opt  [oxime: C3=N2-O1]

1 1
O       -3.69428341     -1.11993961      0.00427242
N       -2.00706200     -1.37677900      0.00918400
C       -1.45280100     -0.22270900      0.00415400
C       -2.06234000      1.14799300     -0.00094900
C       -0.87186100      2.12523600      0.00318200
C        0.34297000      1.24167800      0.00215200
C        1.68524800      1.61166100      0.00003300
C        2.65885200      0.62474000     -0.00176100
C        2.27653700     -0.71331900     -0.00123200
F        3.24922100     -1.65188600     -0.00358600
C        0.96413500     -1.12343200      0.00096300
C        0.00421400     -0.11012400      0.00274300
H       -4.04060841     -1.46610461     -0.83984758
H       -4.06884941     -1.67367761      0.71467342
H       -2.69618400      1.25718300     -0.88328500
H       -2.70569100      1.25827400      0.87423300
H       -0.88283000      2.77418800     -0.87461700
H       -0.88486300      2.76830700      0.88536400
H        1.97224300      2.65646500     -0.00069700
H        3.71296300      0.87524400     -0.00407000
H        0.70759600     -2.17528900      0.00058500

B 2 1 F

--Link1--
%chk=mol_011_E_scan_pt4.chk
%nprocshared=8
%mem=16GB
#p wB97XD/6-311+G(d,p) Geom=Check Guess=Read Stable=Opt Pop=NBO7Read Density=Current scrf=(smd,solvent=water)

mol_011_E SP+NBO7/CMO after constrained opt at R0+0.20A  [oxime: C3=N2-O1]

1 1

$NBO CMO PRINT=2 E2PERT=0.05 BNDIDX $END

--Link1--
%chk=mol_011_E_scan_pt5.chk
%nprocshared=8
%mem=16GB
#p wB97XD/6-311+G(d,p) opt=(ModRedundant) SCF=(Tight,XQC) NoSymm scrf=(smd,solvent=water)

mol_011_E scan pt5 (R0+0.25A) rigid O-N displacement then constrained opt  [oxime: C3=N2-O1]

1 1
O       -3.74371376     -1.11241501      0.00412853
N       -2.00706200     -1.37677900      0.00918400
C       -1.45280100     -0.22270900      0.00415400
C       -2.06234000      1.14799300     -0.00094900
C       -0.87186100      2.12523600      0.00318200
C        0.34297000      1.24167800      0.00215200
C        1.68524800      1.61166100      0.00003300
C        2.65885200      0.62474000     -0.00176100
C        2.27653700     -0.71331900     -0.00123200
F        3.24922100     -1.65188600     -0.00358600
C        0.96413500     -1.12343200      0.00096300
C        0.00421400     -0.11012400      0.00274300
H       -4.09003876     -1.45858001     -0.83999147
H       -4.11827976     -1.66615301      0.71452953
H       -2.69618400      1.25718300     -0.88328500
H       -2.70569100      1.25827400      0.87423300
H       -0.88283000      2.77418800     -0.87461700
H       -0.88486300      2.76830700      0.88536400
H        1.97224300      2.65646500     -0.00069700
H        3.71296300      0.87524400     -0.00407000
H        0.70759600     -2.17528900      0.00058500

B 2 1 F

--Link1--
%chk=mol_011_E_scan_pt5.chk
%nprocshared=8
%mem=16GB
#p wB97XD/6-311+G(d,p) Geom=Check Guess=Read Stable=Opt Pop=NBO7Read Density=Current scrf=(smd,solvent=water)

mol_011_E SP+NBO7/CMO after constrained opt at R0+0.25A  [oxime: C3=N2-O1]

1 1

$NBO CMO PRINT=2 E2PERT=0.05 BNDIDX $END

--Link1--
%chk=mol_011_E_scan_pt6.chk
%nprocshared=8
%mem=16GB
#p wB97XD/6-311+G(d,p) opt=(ModRedundant) SCF=(Tight,XQC) NoSymm scrf=(smd,solvent=water)

mol_011_E scan pt6 (R0+0.30A) rigid O-N displacement then constrained opt  [oxime: C3=N2-O1]

1 1
O       -3.79314411     -1.10489042      0.00398464
N       -2.00706200     -1.37677900      0.00918400
C       -1.45280100     -0.22270900      0.00415400
C       -2.06234000      1.14799300     -0.00094900
C       -0.87186100      2.12523600      0.00318200
C        0.34297000      1.24167800      0.00215200
C        1.68524800      1.61166100      0.00003300
C        2.65885200      0.62474000     -0.00176100
C        2.27653700     -0.71331900     -0.00123200
F        3.24922100     -1.65188600     -0.00358600
C        0.96413500     -1.12343200      0.00096300
C        0.00421400     -0.11012400      0.00274300
H       -4.13946911     -1.45105542     -0.84013536
H       -4.16771011     -1.65862842      0.71438564
H       -2.69618400      1.25718300     -0.88328500
H       -2.70569100      1.25827400      0.87423300
H       -0.88283000      2.77418800     -0.87461700
H       -0.88486300      2.76830700      0.88536400
H        1.97224300      2.65646500     -0.00069700
H        3.71296300      0.87524400     -0.00407000
H        0.70759600     -2.17528900      0.00058500

B 2 1 F

--Link1--
%chk=mol_011_E_scan_pt6.chk
%nprocshared=8
%mem=16GB
#p wB97XD/6-311+G(d,p) Geom=Check Guess=Read Stable=Opt Pop=NBO7Read Density=Current scrf=(smd,solvent=water)

mol_011_E SP+NBO7/CMO after constrained opt at R0+0.30A  [oxime: C3=N2-O1]

1 1

$NBO CMO PRINT=2 E2PERT=0.05 BNDIDX $END


