23
mol_012_Z_opt
O        4.354600     -0.906700     -0.187300
N        3.514500     -0.021200     -0.235000
O        3.736100      1.175900     -0.384600
C        2.098900     -0.424600     -0.099800
C        1.778800     -1.766400      0.084400
C        0.456800     -2.151900      0.210200
C       -0.543000     -1.190500      0.152000
C       -0.195900      0.162700     -0.035700
C        1.134500      0.558200     -0.166300
C       -1.429900      0.940500     -0.066900
N       -1.805500      2.154600     -0.080800
O       -0.432800      3.150400     -0.126600
C       -2.627300     -0.010300     -0.047300
C       -2.016200     -1.386000      0.283400
H        2.575200     -2.492300      0.124600
H        0.210500     -3.194500      0.351900
H        1.466600      1.570400     -0.326000
H       -0.431500      3.557700      0.762400
H       -0.725000      3.829800     -0.765000
H       -3.083400     -0.003800     -1.034400
H       -3.390100      0.311300      0.654300
H       -2.383000     -2.174800     -0.368900
H       -2.263200     -1.688300      1.301500
