23
mol_012_E_opt
O        3.801700      1.829700      0.183600
N        3.749400      0.645000     -0.124400
O        4.703400     -0.071900     -0.390700
C        2.404300      0.026200     -0.178500
C        2.291500     -1.321200     -0.517400
C        1.044100     -1.924600     -0.574500
C       -0.084600     -1.170400     -0.291200
C        0.060700      0.185400      0.045600
C        1.303500      0.808100      0.109600
C       -1.265200      0.740900      0.288600
N       -1.352700      1.974100      0.613800
O       -2.950600      2.297400      0.813900
C       -2.308700     -0.325100      0.088900
C       -1.522800     -1.592600     -0.283800
H        3.187800     -1.881000     -0.732900
H        0.964500     -2.969700     -0.837700
H        1.422600      1.847900      0.369300
H       -2.970200      2.659100      1.722500
H       -3.081600      3.049800      0.202900
H       -2.891100     -0.433600      1.001400
H       -2.998600     -0.004500     -0.689100
H       -1.687300     -2.391100      0.436300
H       -1.820400     -1.977700     -1.256300
