%chk=mol_024_E.chk
%nprocshared=8
%mem=16GB
#p wB97XD/6-311+G(d,p) sp pop=nbo7read

mol_024_E  [oxime: C8=N9-O10]

1 1
C        3.76910000      1.03900000      0.30690000
C        2.50670000      0.27880000      0.05060000
C        2.53940000     -1.07480000     -0.31120000
C        1.37770000     -1.79480000     -0.52530000
C        0.12500000     -1.20240000     -0.38770000
C        0.07900000      0.15620000     -0.02500000
C        1.26340000      0.87750000      0.18340000
C       -1.24880000      0.80570000      0.11130000
N       -1.15010000      2.07060000      0.22170000
O       -2.75640000      2.69760000      0.26520000
C       -2.50420000     -0.01850000      0.08120000
C       -2.24180000     -1.49860000      0.29490000
C       -1.13150000     -1.98060000     -0.61650000
H        3.63490000      2.11040000      0.17880000
H        4.11770000      0.87330000      1.32750000
H        4.56450000      0.70870000     -0.35740000
H        3.49700000     -1.56610000     -0.42770000
H        1.44120000     -2.83890000     -0.80140000
H        1.20690000      1.92520000      0.45800000
H       -2.66340000      3.40850000     -0.39750000
H       -2.74490000      3.12500000      1.14280000
H       -2.94940000      0.16210000     -0.89820000
H       -3.20590000      0.37340000      0.81310000
H       -1.96750000     -1.67800000      1.33450000
H       -3.15960000     -2.04740000      0.10360000
H       -1.44150000     -1.86910000     -1.66040000
H       -0.95760000     -3.04310000     -0.46520000
$NBO E2PERT BNDIDX NBOSUM CMO $END


