25
mol_010_Z_opt
C        4.104300      0.144000      0.007000
O        2.854100      0.820100      0.188400
C        1.715700      0.128300      0.028900
C        1.642500     -1.232600     -0.325000
C        0.424100     -1.870800     -0.460800
C       -0.750600     -1.170100     -0.250500
C       -0.676400      0.190700      0.094500
C        0.538700      0.847600      0.242600
C       -2.043700      0.680700      0.251400
N       -2.649500      1.776000      0.410500
O       -1.432300      3.056600      0.525800
C       -3.020100     -0.499800      0.156300
C       -2.151400     -1.665400     -0.360000
H        4.868900      0.889300      0.192300
H        4.209100     -0.673000      0.720800
H        4.197700     -0.230400     -1.012400
H        2.542600     -1.802100     -0.493500
H        0.400500     -2.917000     -0.729900
H        0.638900      1.879900      0.531600
H       -1.522300      3.458100     -0.358300
H       -1.908500      3.632600      1.152200
H       -3.869500     -0.270500     -0.477900
H       -3.403100     -0.695400      1.154100
H       -2.312300     -2.578800      0.207800
H       -2.397500     -1.898000     -1.395900
