24
mol_033_Z_opt
O       -0.603500     -3.110500      0.290800
N       -1.721200     -1.907400     -0.095600
C       -1.123600     -0.799100     -0.285700
C       -2.198200      0.254900     -0.462800
C       -1.946700      1.350600      0.562300
C       -0.571800      1.962900      0.352000
C        0.529900      0.966800      0.111100
C        1.848800      1.382000      0.215600
C        2.885100      0.525300     -0.123100
Cl       4.520600      1.071000     -0.006400
C        2.633200     -0.768400     -0.574100
C        1.333300     -1.205800     -0.646300
C        0.268400     -0.366200     -0.277800
H       -1.165000     -3.903600      0.204800
H       -0.402900     -2.978900      1.238700
H       -2.104900      0.646100     -1.476300
H       -3.187800     -0.183100     -0.373400
H       -2.039700      0.937300      1.567400
H       -2.710200      2.119700      0.468300
H       -0.307800      2.603400      1.192300
H       -0.607700      2.620200     -0.520200
H        2.070500      2.387300      0.545000
H        3.449900     -1.408400     -0.870000
H        1.151700     -2.196200     -1.036500
