24
mol_029_E_opt
O       -2.487600      2.618600      0.310800
N       -0.878600      2.115900      0.488400
C       -0.793200      0.931700      0.013900
C       -1.916200      0.088100     -0.533500
C       -1.453800     -1.278000     -1.010300
C       -0.516600     -1.894400      0.009900
C        0.698800     -1.037900      0.181000
C        1.952100     -1.599100      0.368900
C        3.082000     -0.800900      0.475000
C        2.985500      0.579200      0.386700
C        1.741400      1.146100      0.206900
F        1.671600      2.479600      0.080300
C        0.569500      0.368700      0.125400
H       -2.636300      2.992600      1.200700
H       -2.373900      3.373700     -0.299000
H       -2.422700      0.639600     -1.325100
H       -2.638000     -0.019500      0.277800
H       -0.943400     -1.188000     -1.969000
H       -2.325600     -1.907600     -1.162600
H       -0.238500     -2.899900     -0.292800
H       -1.035600     -1.992800      0.967500
H        2.044700     -2.674900      0.423200
H        4.054000     -1.250400      0.621800
H        3.860300      1.209900      0.453800
