%chk=mol_021_Z.chk
%nprocshared=8
%mem=16GB
#p wB97XD/6-311+G(d,p) sp pop=nboread

mol_021_Z  [oxime: C12=N13-O14]

1 1
C        4.22410000     -0.93190000     -0.04650000
O        3.56330000      0.33780000     -0.09090000
C        2.23060000      0.37100000     -0.12470000
C        1.66080000      1.65220000     -0.19570000
C        0.30210000      1.78680000     -0.21180000
C       -0.54010000      0.65530000     -0.16000000
C        0.03580000     -0.63620000     -0.15470000
C        1.41250000     -0.75900000     -0.10600000
C       -0.80270000     -1.88200000     -0.25980000
C       -2.26710000     -1.68320000      0.08740000
C       -2.80330000     -0.43860000     -0.59980000
C       -1.98490000      0.75360000     -0.12700000
N       -2.82730000      1.61950000      0.27660000
O       -2.00540000      2.93310000      1.01380000
H        3.98690000     -1.51690000     -0.93390000
H        5.28410000     -0.70930000     -0.02510000
H        3.94240000     -1.47740000      0.85280000
H        2.31770000      2.50790000     -0.24750000
H       -0.10930000      2.78010000     -0.31040000
H        1.84240000     -1.74850000     -0.07430000
H       -0.36910000     -2.66890000      0.35540000
H       -0.72810000     -2.23430000     -1.29120000
H       -2.84330000     -2.55170000     -0.22540000
H       -2.40020000     -1.58810000      1.16600000
H       -2.67740000     -0.50790000     -1.68030000
H       -3.86040000     -0.28220000     -0.40650000
H       -1.85340000      2.63470000      1.93100000
H       -2.73100000      3.58410000      1.02870000
$NBO E2PERT BNDIDX NBOSUM $END


