%chk=mol_025_E.chk
%nprocshared=8
%mem=16GB
#p wB97XD/6-311+G(d,p) sp pop=nboread

mol_025_E  [oxime: C9=N10-O11]

1 1
C        4.54390000      0.81520000     -0.10560000
O        3.20720000      1.31740000     -0.18670000
C        2.19000000      0.47270000      0.03430000
C        2.33240000     -0.88920000      0.33980000
C        1.21170000     -1.67100000      0.54880000
C       -0.07700000     -1.14940000      0.46530000
C       -0.20940000      0.21600000      0.15510000
C        0.90590000      1.01790000     -0.05170000
C       -1.58050000      0.80770000      0.07080000
N       -1.54510000      2.06980000      0.01130000
O       -3.26370000      2.61910000      0.03270000
C       -2.78650000     -0.09150000      0.09300000
C       -2.44130000     -1.54720000     -0.18040000
C       -1.28400000     -2.00080000      0.69150000
H        5.18860000      1.66170000     -0.31350000
H        4.71070000      0.03680000     -0.84990000
H        4.75320000      0.43270000      0.89310000
H        3.30900000     -1.34240000      0.41410000
H        1.34770000     -2.71780000      0.77980000
H        0.79230000      2.07020000     -0.28430000
H       -3.16770000      3.29020000      0.73450000
H       -3.25320000      3.10100000     -0.81520000
H       -3.52570000      0.28030000     -0.61140000
H       -3.22480000      0.02500000      1.08530000
H       -2.17910000     -1.67540000     -1.23110000
H       -3.31920000     -2.16020000      0.01050000
H       -1.05630000     -3.04780000      0.50260000
H       -1.57880000     -1.94130000      1.74480000
$NBO E2PERT BNDIDX NBOSUM $END


