%chk=mol_032_E.chk
%nprocshared=8
%mem=16GB
#p wB97XD/6-311+G(d,p) sp gfinput gfprint scrf=(smd,solvent=water)

mol_032_E gfinput/gfprint basis extraction

1 1
O        4.51692800     -1.43170200     -0.22740100
N        3.02244900     -1.52961600     -0.18990300
C        2.53691500     -0.35773600      0.00418200
C        3.33819600      0.90570600      0.12195800
C        2.49464900      2.11164000      0.51322900
C        1.23464200      2.17963100     -0.33954200
C        0.42549100      0.92452200     -0.16059000
C       -0.96738200      0.97012900     -0.17950400
C       -1.69884400     -0.19075500      0.00605100
Br      -3.59776900     -0.10280600     -0.01711500
C       -1.08089700     -1.41752800      0.22670300
C        0.30030100     -1.46746100      0.24480300
C        1.06071500     -0.30961500      0.04249200
H        4.87984500     -1.52945900      0.67448700
H        4.82042300     -2.20084600     -0.74308500
H        4.15345500      0.75129800      0.83061900
H        3.80082600      1.06685100     -0.85919700
H        3.09266000      3.01541600      0.38648100
H        2.21792500      2.04469600      1.56985400
H        1.51017000      2.28397400     -1.39603300
H        0.62651300      3.04705300     -0.07772500
H       -1.46363500      1.92126700     -0.33245800
H       -1.66139900     -2.31683500      0.38739600
H        0.78983500     -2.41546900      0.42853700


