%chk=mol_003_E_opt.chk
%nprocshared=8
%mem=16GB
#p wB97XD/6-311+G(d,p) opt scrf=(smd,solvent=water)

mol_003_E opt  [oxime: C3=N2-O1]

1 1
O        3.30820000      1.19170000     -0.85410000
N        1.71950000      1.54690000     -0.62870000
C        1.11820000      0.44340000     -0.38150000
C        1.63590000     -0.96680000     -0.28320000
C        0.40720000     -1.82670000      0.04410000
C       -0.73490000     -0.85730000      0.09900000
C       -2.06570000     -1.12220000      0.34960000
C       -2.94360000     -0.04800000      0.35020000
F       -4.23450000     -0.28150000      0.58960000
C       -2.54410000      1.26750000      0.11250000
C       -1.21490000      1.53290000     -0.13870000
C       -0.31360000      0.46210000     -0.14510000
H        3.73740000      1.77710000     -0.20010000
H        3.47380000      1.57610000     -1.73710000
H        2.10830000     -1.23650000     -1.22570000
H        2.40720000     -1.01130000      0.48310000
H        0.52460000     -2.34550000      0.99240000
H        0.23910000     -2.58890000     -0.71250000
H       -2.43750000     -2.11840000      0.54110000
H       -3.28400000      2.05360000      0.12960000
H       -0.90620000      2.55210000     -0.32230000


