%chk=mol_034_E_step07_scan_pt1.chk
%nprocshared=8
%mem=16GB
#p wB97XD/6-311+G(d,p) opt=(ModRedundant) SCF=(Tight,XQC) NoSymm scrf=(smd,solvent=water)

mol_034_E_step07 scan pt1 (R0+0.07A) rigid O-N displacement then constrained opt  [oxime: C11=N12-O13]

1 1
C       -3.34033600      1.06777100     -0.35993900
C       -2.25138300      0.05451500     -0.12912400
C       -2.57744900     -1.28669800      0.05176700
C       -1.59911300     -2.25287100      0.27286700
C       -0.26745800     -1.88759400      0.28571000
C        0.08453500     -0.54563800      0.09016800
C       -0.90054000      0.43967400     -0.08780700
C       -0.49332800      1.88499600     -0.21461100
C        0.73946900      2.16481000      0.63573200
C        1.90395400      1.28742000      0.20363500
C        1.50440000     -0.14554500      0.01160000
N        2.30307200     -1.10496300     -0.29063000
O        3.77183914     -0.52678929     -0.33346489
H       -4.30763400      0.57321700     -0.46080600
H       -3.40776700      1.77593100      0.47163500
H       -3.15719100      1.64921000     -1.26754900
H       -3.62181300     -1.58086600      0.02953000
H       -1.88156000     -3.28691100      0.43180100
H        0.50058000     -2.63148500      0.45567800
H       -0.28345500      2.11897800     -1.26612500
H       -1.31376400      2.53303400      0.09358200
H        0.50266900      1.97736100      1.68754300
H        1.03416600      3.21188900      0.54808700
H        2.30578800      1.63060000     -0.75648800
H        2.72671100      1.32920000      0.92004600
H        4.16712114     -0.85034529     -1.16375689
H        4.27453114     -0.92949029      0.39998911

B 12 13 F

--Link1--
%chk=mol_034_E_step07_scan_pt1.chk
%nprocshared=8
%mem=16GB
#p wB97XD/6-311+G(d,p) Geom=Check Guess=Read Stable=Opt Pop=NBO7Read Density=Current scrf=(smd,solvent=water)

mol_034_E_step07 SP+NBO7/CMO after constrained opt at R0+0.07A  [oxime: C11=N12-O13]

1 1

$NBO CMO PRINT=2 E2PERT=0.05 BNDIDX $END

--Link1--
%chk=mol_034_E_step07_scan_pt2.chk
%nprocshared=8
%mem=16GB
#p wB97XD/6-311+G(d,p) opt=(ModRedundant) SCF=(Tight,XQC) NoSymm scrf=(smd,solvent=water)

mol_034_E_step07 scan pt2 (R0+0.14A) rigid O-N displacement then constrained opt  [oxime: C11=N12-O13]

1 1
C       -3.34033600      1.06777100     -0.35993900
C       -2.25138300      0.05451500     -0.12912400
C       -2.57744900     -1.28669800      0.05176700
C       -1.59911300     -2.25287100      0.27286700
C       -0.26745800     -1.88759400      0.28571000
C        0.08453500     -0.54563800      0.09016800
C       -0.90054000      0.43967400     -0.08780700
C       -0.49332800      1.88499600     -0.21461100
C        0.73946900      2.16481000      0.63573200
C        1.90395400      1.28742000      0.20363500
C        1.50440000     -0.14554500      0.01160000
N        2.30307200     -1.10496300     -0.29063000
O        3.83695028     -0.50115857     -0.33536378
H       -4.30763400      0.57321700     -0.46080600
H       -3.40776700      1.77593100      0.47163500
H       -3.15719100      1.64921000     -1.26754900
H       -3.62181300     -1.58086600      0.02953000
H       -1.88156000     -3.28691100      0.43180100
H        0.50058000     -2.63148500      0.45567800
H       -0.28345500      2.11897800     -1.26612500
H       -1.31376400      2.53303400      0.09358200
H        0.50266900      1.97736100      1.68754300
H        1.03416600      3.21188900      0.54808700
H        2.30578800      1.63060000     -0.75648800
H        2.72671100      1.32920000      0.92004600
H        4.23223228     -0.82471457     -1.16565578
H        4.33964228     -0.90385957      0.39809022

B 12 13 F

--Link1--
%chk=mol_034_E_step07_scan_pt2.chk
%nprocshared=8
%mem=16GB
#p wB97XD/6-311+G(d,p) Geom=Check Guess=Read Stable=Opt Pop=NBO7Read Density=Current scrf=(smd,solvent=water)

mol_034_E_step07 SP+NBO7/CMO after constrained opt at R0+0.14A  [oxime: C11=N12-O13]

1 1

$NBO CMO PRINT=2 E2PERT=0.05 BNDIDX $END

--Link1--
%chk=mol_034_E_step07_scan_pt3.chk
%nprocshared=8
%mem=16GB
#p wB97XD/6-311+G(d,p) opt=(ModRedundant) SCF=(Tight,XQC) NoSymm scrf=(smd,solvent=water)

mol_034_E_step07 scan pt3 (R0+0.21A) rigid O-N displacement then constrained opt  [oxime: C11=N12-O13]

1 1
C       -3.34033600      1.06777100     -0.35993900
C       -2.25138300      0.05451500     -0.12912400
C       -2.57744900     -1.28669800      0.05176700
C       -1.59911300     -2.25287100      0.27286700
C       -0.26745800     -1.88759400      0.28571000
C        0.08453500     -0.54563800      0.09016800
C       -0.90054000      0.43967400     -0.08780700
C       -0.49332800      1.88499600     -0.21461100
C        0.73946900      2.16481000      0.63573200
C        1.90395400      1.28742000      0.20363500
C        1.50440000     -0.14554500      0.01160000
N        2.30307200     -1.10496300     -0.29063000
O        3.90206142     -0.47552786     -0.33726267
H       -4.30763400      0.57321700     -0.46080600
H       -3.40776700      1.77593100      0.47163500
H       -3.15719100      1.64921000     -1.26754900
H       -3.62181300     -1.58086600      0.02953000
H       -1.88156000     -3.28691100      0.43180100
H        0.50058000     -2.63148500      0.45567800
H       -0.28345500      2.11897800     -1.26612500
H       -1.31376400      2.53303400      0.09358200
H        0.50266900      1.97736100      1.68754300
H        1.03416600      3.21188900      0.54808700
H        2.30578800      1.63060000     -0.75648800
H        2.72671100      1.32920000      0.92004600
H        4.29734342     -0.79908386     -1.16755467
H        4.40475342     -0.87822886      0.39619133

B 12 13 F

--Link1--
%chk=mol_034_E_step07_scan_pt3.chk
%nprocshared=8
%mem=16GB
#p wB97XD/6-311+G(d,p) Geom=Check Guess=Read Stable=Opt Pop=NBO7Read Density=Current scrf=(smd,solvent=water)

mol_034_E_step07 SP+NBO7/CMO after constrained opt at R0+0.21A  [oxime: C11=N12-O13]

1 1

$NBO CMO PRINT=2 E2PERT=0.05 BNDIDX $END

--Link1--
%chk=mol_034_E_step07_scan_pt4.chk
%nprocshared=8
%mem=16GB
#p wB97XD/6-311+G(d,p) opt=(ModRedundant) SCF=(Tight,XQC) NoSymm scrf=(smd,solvent=water)

mol_034_E_step07 scan pt4 (R0+0.28A) rigid O-N displacement then constrained opt  [oxime: C11=N12-O13]

1 1
C       -3.34033600      1.06777100     -0.35993900
C       -2.25138300      0.05451500     -0.12912400
C       -2.57744900     -1.28669800      0.05176700
C       -1.59911300     -2.25287100      0.27286700
C       -0.26745800     -1.88759400      0.28571000
C        0.08453500     -0.54563800      0.09016800
C       -0.90054000      0.43967400     -0.08780700
C       -0.49332800      1.88499600     -0.21461100
C        0.73946900      2.16481000      0.63573200
C        1.90395400      1.28742000      0.20363500
C        1.50440000     -0.14554500      0.01160000
N        2.30307200     -1.10496300     -0.29063000
O        3.96717257     -0.44989714     -0.33916156
H       -4.30763400      0.57321700     -0.46080600
H       -3.40776700      1.77593100      0.47163500
H       -3.15719100      1.64921000     -1.26754900
H       -3.62181300     -1.58086600      0.02953000
H       -1.88156000     -3.28691100      0.43180100
H        0.50058000     -2.63148500      0.45567800
H       -0.28345500      2.11897800     -1.26612500
H       -1.31376400      2.53303400      0.09358200
H        0.50266900      1.97736100      1.68754300
H        1.03416600      3.21188900      0.54808700
H        2.30578800      1.63060000     -0.75648800
H        2.72671100      1.32920000      0.92004600
H        4.36245457     -0.77345314     -1.16945356
H        4.46986457     -0.85259814      0.39429244

B 12 13 F

--Link1--
%chk=mol_034_E_step07_scan_pt4.chk
%nprocshared=8
%mem=16GB
#p wB97XD/6-311+G(d,p) Geom=Check Guess=Read Stable=Opt Pop=NBO7Read Density=Current scrf=(smd,solvent=water)

mol_034_E_step07 SP+NBO7/CMO after constrained opt at R0+0.28A  [oxime: C11=N12-O13]

1 1

$NBO CMO PRINT=2 E2PERT=0.05 BNDIDX $END

--Link1--
%chk=mol_034_E_step07_scan_pt5.chk
%nprocshared=8
%mem=16GB
#p wB97XD/6-311+G(d,p) opt=(ModRedundant) SCF=(Tight,XQC) NoSymm scrf=(smd,solvent=water)

mol_034_E_step07 scan pt5 (R0+0.35A) rigid O-N displacement then constrained opt  [oxime: C11=N12-O13]

1 1
C       -3.34033600      1.06777100     -0.35993900
C       -2.25138300      0.05451500     -0.12912400
C       -2.57744900     -1.28669800      0.05176700
C       -1.59911300     -2.25287100      0.27286700
C       -0.26745800     -1.88759400      0.28571000
C        0.08453500     -0.54563800      0.09016800
C       -0.90054000      0.43967400     -0.08780700
C       -0.49332800      1.88499600     -0.21461100
C        0.73946900      2.16481000      0.63573200
C        1.90395400      1.28742000      0.20363500
C        1.50440000     -0.14554500      0.01160000
N        2.30307200     -1.10496300     -0.29063000
O        4.03228371     -0.42426643     -0.34106045
H       -4.30763400      0.57321700     -0.46080600
H       -3.40776700      1.77593100      0.47163500
H       -3.15719100      1.64921000     -1.26754900
H       -3.62181300     -1.58086600      0.02953000
H       -1.88156000     -3.28691100      0.43180100
H        0.50058000     -2.63148500      0.45567800
H       -0.28345500      2.11897800     -1.26612500
H       -1.31376400      2.53303400      0.09358200
H        0.50266900      1.97736100      1.68754300
H        1.03416600      3.21188900      0.54808700
H        2.30578800      1.63060000     -0.75648800
H        2.72671100      1.32920000      0.92004600
H        4.42756571     -0.74782243     -1.17135245
H        4.53497571     -0.82696743      0.39239355

B 12 13 F

--Link1--
%chk=mol_034_E_step07_scan_pt5.chk
%nprocshared=8
%mem=16GB
#p wB97XD/6-311+G(d,p) Geom=Check Guess=Read Stable=Opt Pop=NBO7Read Density=Current scrf=(smd,solvent=water)

mol_034_E_step07 SP+NBO7/CMO after constrained opt at R0+0.35A  [oxime: C11=N12-O13]

1 1

$NBO CMO PRINT=2 E2PERT=0.05 BNDIDX $END

--Link1--
%chk=mol_034_E_step07_scan_pt6.chk
%nprocshared=8
%mem=16GB
#p wB97XD/6-311+G(d,p) opt=(ModRedundant) SCF=(Tight,XQC) NoSymm scrf=(smd,solvent=water)

mol_034_E_step07 scan pt6 (R0+0.42A) rigid O-N displacement then constrained opt  [oxime: C11=N12-O13]

1 1
C       -3.34033600      1.06777100     -0.35993900
C       -2.25138300      0.05451500     -0.12912400
C       -2.57744900     -1.28669800      0.05176700
C       -1.59911300     -2.25287100      0.27286700
C       -0.26745800     -1.88759400      0.28571000
C        0.08453500     -0.54563800      0.09016800
C       -0.90054000      0.43967400     -0.08780700
C       -0.49332800      1.88499600     -0.21461100
C        0.73946900      2.16481000      0.63573200
C        1.90395400      1.28742000      0.20363500
C        1.50440000     -0.14554500      0.01160000
N        2.30307200     -1.10496300     -0.29063000
O        4.09739485     -0.39863572     -0.34295935
H       -4.30763400      0.57321700     -0.46080600
H       -3.40776700      1.77593100      0.47163500
H       -3.15719100      1.64921000     -1.26754900
H       -3.62181300     -1.58086600      0.02953000
H       -1.88156000     -3.28691100      0.43180100
H        0.50058000     -2.63148500      0.45567800
H       -0.28345500      2.11897800     -1.26612500
H       -1.31376400      2.53303400      0.09358200
H        0.50266900      1.97736100      1.68754300
H        1.03416600      3.21188900      0.54808700
H        2.30578800      1.63060000     -0.75648800
H        2.72671100      1.32920000      0.92004600
H        4.49267685     -0.72219172     -1.17325135
H        4.60008685     -0.80133672      0.39049465

B 12 13 F

--Link1--
%chk=mol_034_E_step07_scan_pt6.chk
%nprocshared=8
%mem=16GB
#p wB97XD/6-311+G(d,p) Geom=Check Guess=Read Stable=Opt Pop=NBO7Read Density=Current scrf=(smd,solvent=water)

mol_034_E_step07 SP+NBO7/CMO after constrained opt at R0+0.42A  [oxime: C11=N12-O13]

1 1

$NBO CMO PRINT=2 E2PERT=0.05 BNDIDX $END


