%chk=mol_034_E_opt.chk
%nprocshared=8
%mem=16GB
#p wB97XD/6-311+G(d,p) opt scrf=(smd,solvent=water)

mol_034_E opt  [oxime: C11=N12-O13]

1 1
C       -3.16130000     -1.04850000      0.00140000
C       -2.13160000      0.02570000     -0.16450000
C       -2.51780000      1.31730000     -0.51540000
C       -1.58990000      2.34030000     -0.67530000
C       -0.25060000      2.09360000     -0.47560000
C        0.16840000      0.80080000     -0.12470000
C       -0.76420000     -0.24220000      0.01860000
C       -0.29320000     -1.62080000      0.37030000
C        1.06260000     -1.91210000     -0.23840000
C        2.09170000     -0.90730000      0.24670000
C        1.60210000      0.50830000      0.13610000
N        2.28150000      1.57510000      0.26870000
O        3.89950000      1.10190000      0.66660000
H       -4.16740000     -0.65160000     -0.09170000
H       -3.04520000     -1.82880000     -0.75170000
H       -3.08250000     -1.53290000      0.97450000
H       -3.56920000      1.52700000     -0.66610000
H       -1.92230000      3.32990000     -0.95310000
H        0.46640000      2.89500000     -0.59690000
H       -0.23880000     -1.72160000      1.45900000
H       -1.00330000     -2.37250000      0.04050000
H        0.99210000     -1.87340000     -1.32580000
H        1.39480000     -2.91230000      0.02800000
H        2.31700000     -1.06340000      1.30240000
H        3.03310000     -1.00740000     -0.28810000
H        4.04720000      1.68120000      1.43860000
H        4.38090000      1.49900000     -0.08420000


