%chk=mol_018_E_scan_pt1.chk
%nprocshared=8
%mem=16GB
#p wB97XD/6-311+G(d,p) opt=(ModRedundant) SCF=(Tight,XQC) NoSymm scrf=(smd,solvent=water)

mol_018_E scan pt1 (R0+0.05A) rigid O-N displacement then constrained opt  [oxime: C12=N13-O14]

1 1
O       -2.55661000     -1.85937000     -0.21657200
N       -2.75115300     -0.67644100      0.00220500
O       -3.85358400     -0.20988700      0.23370700
C       -1.60403600      0.22865100     -0.01561800
C       -1.85587500      1.59528700     -0.02070600
C       -0.79923600      2.49766700     -0.03411400
C        0.50812500      2.03782500     -0.02846900
C        0.73153000      0.66372900     -0.01698000
C       -0.30423700     -0.27289700     -0.01800200
C        0.22025100     -1.68010800     -0.01367800
C        1.74947600     -1.52790700      0.06685600
C        2.00609400     -0.05534300      0.00121000
N        3.10449900      0.59902800     -0.03128100
O        4.26685555     -0.42309508     -0.00828008
H       -2.87785600      1.94979900     -0.01980300
H       -1.00534800      3.56004700     -0.04502700
H        1.33789800      2.73408400     -0.02999700
H       -0.08179900     -2.19949300     -0.92399100
H       -0.18064000     -2.24701500      0.82745600
H        2.15539400     -1.91705700      1.00415900
H        2.27220400     -2.03178200     -0.74788800
H        5.04285855      0.04755892     -0.36391608
H        4.47346455     -0.66700508      0.91613592

B 13 14 F

--Link1--
%chk=mol_018_E_scan_pt1.chk
%nprocshared=8
%mem=16GB
#p wB97XD/6-311+G(d,p) Geom=Check Guess=Read Stable=Opt Pop=NBO7Read Density=Current scrf=(smd,solvent=water)

mol_018_E SP+NBO7/CMO after constrained opt at R0+0.05A  [oxime: C12=N13-O14]

1 1

$NBO CMO PRINT=2 E2PERT=0.05 BNDIDX $END

--Link1--
%chk=mol_018_E_scan_pt2.chk
%nprocshared=8
%mem=16GB
#p wB97XD/6-311+G(d,p) opt=(ModRedundant) SCF=(Tight,XQC) NoSymm scrf=(smd,solvent=water)

mol_018_E scan pt2 (R0+0.10A) rigid O-N displacement then constrained opt  [oxime: C12=N13-O14]

1 1
O       -2.55661000     -1.85937000     -0.21657200
N       -2.75115300     -0.67644100      0.00220500
O       -3.85358400     -0.20988700      0.23370700
C       -1.60403600      0.22865100     -0.01561800
C       -1.85587500      1.59528700     -0.02070600
C       -0.79923600      2.49766700     -0.03411400
C        0.50812500      2.03782500     -0.02846900
C        0.73153000      0.66372900     -0.01698000
C       -0.30423700     -0.27289700     -0.01800200
C        0.22025100     -1.68010800     -0.01367800
C        1.74947600     -1.52790700      0.06685600
C        2.00609400     -0.05534300      0.00121000
N        3.10449900      0.59902800     -0.03128100
O        4.30439911     -0.45610916     -0.00753716
H       -2.87785600      1.94979900     -0.01980300
H       -1.00534800      3.56004700     -0.04502700
H        1.33789800      2.73408400     -0.02999700
H       -0.08179900     -2.19949300     -0.92399100
H       -0.18064000     -2.24701500      0.82745600
H        2.15539400     -1.91705700      1.00415900
H        2.27220400     -2.03178200     -0.74788800
H        5.08040211      0.01454484     -0.36317316
H        4.51100811     -0.70001916      0.91687884

B 13 14 F

--Link1--
%chk=mol_018_E_scan_pt2.chk
%nprocshared=8
%mem=16GB
#p wB97XD/6-311+G(d,p) Geom=Check Guess=Read Stable=Opt Pop=NBO7Read Density=Current scrf=(smd,solvent=water)

mol_018_E SP+NBO7/CMO after constrained opt at R0+0.10A  [oxime: C12=N13-O14]

1 1

$NBO CMO PRINT=2 E2PERT=0.05 BNDIDX $END

--Link1--
%chk=mol_018_E_scan_pt3.chk
%nprocshared=8
%mem=16GB
#p wB97XD/6-311+G(d,p) opt=(ModRedundant) SCF=(Tight,XQC) NoSymm scrf=(smd,solvent=water)

mol_018_E scan pt3 (R0+0.15A) rigid O-N displacement then constrained opt  [oxime: C12=N13-O14]

1 1
O       -2.55661000     -1.85937000     -0.21657200
N       -2.75115300     -0.67644100      0.00220500
O       -3.85358400     -0.20988700      0.23370700
C       -1.60403600      0.22865100     -0.01561800
C       -1.85587500      1.59528700     -0.02070600
C       -0.79923600      2.49766700     -0.03411400
C        0.50812500      2.03782500     -0.02846900
C        0.73153000      0.66372900     -0.01698000
C       -0.30423700     -0.27289700     -0.01800200
C        0.22025100     -1.68010800     -0.01367800
C        1.74947600     -1.52790700      0.06685600
C        2.00609400     -0.05534300      0.00121000
N        3.10449900      0.59902800     -0.03128100
O        4.34194266     -0.48912324     -0.00679424
H       -2.87785600      1.94979900     -0.01980300
H       -1.00534800      3.56004700     -0.04502700
H        1.33789800      2.73408400     -0.02999700
H       -0.08179900     -2.19949300     -0.92399100
H       -0.18064000     -2.24701500      0.82745600
H        2.15539400     -1.91705700      1.00415900
H        2.27220400     -2.03178200     -0.74788800
H        5.11794566     -0.01846924     -0.36243024
H        4.54855166     -0.73303324      0.91762176

B 13 14 F

--Link1--
%chk=mol_018_E_scan_pt3.chk
%nprocshared=8
%mem=16GB
#p wB97XD/6-311+G(d,p) Geom=Check Guess=Read Stable=Opt Pop=NBO7Read Density=Current scrf=(smd,solvent=water)

mol_018_E SP+NBO7/CMO after constrained opt at R0+0.15A  [oxime: C12=N13-O14]

1 1

$NBO CMO PRINT=2 E2PERT=0.05 BNDIDX $END

--Link1--
%chk=mol_018_E_scan_pt4.chk
%nprocshared=8
%mem=16GB
#p wB97XD/6-311+G(d,p) opt=(ModRedundant) SCF=(Tight,XQC) NoSymm scrf=(smd,solvent=water)

mol_018_E scan pt4 (R0+0.20A) rigid O-N displacement then constrained opt  [oxime: C12=N13-O14]

1 1
O       -2.55661000     -1.85937000     -0.21657200
N       -2.75115300     -0.67644100      0.00220500
O       -3.85358400     -0.20988700      0.23370700
C       -1.60403600      0.22865100     -0.01561800
C       -1.85587500      1.59528700     -0.02070600
C       -0.79923600      2.49766700     -0.03411400
C        0.50812500      2.03782500     -0.02846900
C        0.73153000      0.66372900     -0.01698000
C       -0.30423700     -0.27289700     -0.01800200
C        0.22025100     -1.68010800     -0.01367800
C        1.74947600     -1.52790700      0.06685600
C        2.00609400     -0.05534300      0.00121000
N        3.10449900      0.59902800     -0.03128100
O        4.37948622     -0.52213733     -0.00605133
H       -2.87785600      1.94979900     -0.01980300
H       -1.00534800      3.56004700     -0.04502700
H        1.33789800      2.73408400     -0.02999700
H       -0.08179900     -2.19949300     -0.92399100
H       -0.18064000     -2.24701500      0.82745600
H        2.15539400     -1.91705700      1.00415900
H        2.27220400     -2.03178200     -0.74788800
H        5.15548922     -0.05148333     -0.36168733
H        4.58609522     -0.76604733      0.91836467

B 13 14 F

--Link1--
%chk=mol_018_E_scan_pt4.chk
%nprocshared=8
%mem=16GB
#p wB97XD/6-311+G(d,p) Geom=Check Guess=Read Stable=Opt Pop=NBO7Read Density=Current scrf=(smd,solvent=water)

mol_018_E SP+NBO7/CMO after constrained opt at R0+0.20A  [oxime: C12=N13-O14]

1 1

$NBO CMO PRINT=2 E2PERT=0.05 BNDIDX $END

--Link1--
%chk=mol_018_E_scan_pt5.chk
%nprocshared=8
%mem=16GB
#p wB97XD/6-311+G(d,p) opt=(ModRedundant) SCF=(Tight,XQC) NoSymm scrf=(smd,solvent=water)

mol_018_E scan pt5 (R0+0.25A) rigid O-N displacement then constrained opt  [oxime: C12=N13-O14]

1 1
O       -2.55661000     -1.85937000     -0.21657200
N       -2.75115300     -0.67644100      0.00220500
O       -3.85358400     -0.20988700      0.23370700
C       -1.60403600      0.22865100     -0.01561800
C       -1.85587500      1.59528700     -0.02070600
C       -0.79923600      2.49766700     -0.03411400
C        0.50812500      2.03782500     -0.02846900
C        0.73153000      0.66372900     -0.01698000
C       -0.30423700     -0.27289700     -0.01800200
C        0.22025100     -1.68010800     -0.01367800
C        1.74947600     -1.52790700      0.06685600
C        2.00609400     -0.05534300      0.00121000
N        3.10449900      0.59902800     -0.03128100
O        4.41702977     -0.55515141     -0.00530841
H       -2.87785600      1.94979900     -0.01980300
H       -1.00534800      3.56004700     -0.04502700
H        1.33789800      2.73408400     -0.02999700
H       -0.08179900     -2.19949300     -0.92399100
H       -0.18064000     -2.24701500      0.82745600
H        2.15539400     -1.91705700      1.00415900
H        2.27220400     -2.03178200     -0.74788800
H        5.19303277     -0.08449741     -0.36094441
H        4.62363877     -0.79906141      0.91910759

B 13 14 F

--Link1--
%chk=mol_018_E_scan_pt5.chk
%nprocshared=8
%mem=16GB
#p wB97XD/6-311+G(d,p) Geom=Check Guess=Read Stable=Opt Pop=NBO7Read Density=Current scrf=(smd,solvent=water)

mol_018_E SP+NBO7/CMO after constrained opt at R0+0.25A  [oxime: C12=N13-O14]

1 1

$NBO CMO PRINT=2 E2PERT=0.05 BNDIDX $END

--Link1--
%chk=mol_018_E_scan_pt6.chk
%nprocshared=8
%mem=16GB
#p wB97XD/6-311+G(d,p) opt=(ModRedundant) SCF=(Tight,XQC) NoSymm scrf=(smd,solvent=water)

mol_018_E scan pt6 (R0+0.30A) rigid O-N displacement then constrained opt  [oxime: C12=N13-O14]

1 1
O       -2.55661000     -1.85937000     -0.21657200
N       -2.75115300     -0.67644100      0.00220500
O       -3.85358400     -0.20988700      0.23370700
C       -1.60403600      0.22865100     -0.01561800
C       -1.85587500      1.59528700     -0.02070600
C       -0.79923600      2.49766700     -0.03411400
C        0.50812500      2.03782500     -0.02846900
C        0.73153000      0.66372900     -0.01698000
C       -0.30423700     -0.27289700     -0.01800200
C        0.22025100     -1.68010800     -0.01367800
C        1.74947600     -1.52790700      0.06685600
C        2.00609400     -0.05534300      0.00121000
N        3.10449900      0.59902800     -0.03128100
O        4.45457333     -0.58816549     -0.00456549
H       -2.87785600      1.94979900     -0.01980300
H       -1.00534800      3.56004700     -0.04502700
H        1.33789800      2.73408400     -0.02999700
H       -0.08179900     -2.19949300     -0.92399100
H       -0.18064000     -2.24701500      0.82745600
H        2.15539400     -1.91705700      1.00415900
H        2.27220400     -2.03178200     -0.74788800
H        5.23057633     -0.11751149     -0.36020149
H        4.66118233     -0.83207549      0.91985051

B 13 14 F

--Link1--
%chk=mol_018_E_scan_pt6.chk
%nprocshared=8
%mem=16GB
#p wB97XD/6-311+G(d,p) Geom=Check Guess=Read Stable=Opt Pop=NBO7Read Density=Current scrf=(smd,solvent=water)

mol_018_E SP+NBO7/CMO after constrained opt at R0+0.30A  [oxime: C12=N13-O14]

1 1

$NBO CMO PRINT=2 E2PERT=0.05 BNDIDX $END


