%chk=mol_032_Z_scan_pt1.chk
%nprocshared=10
%mem=16GB
#p wB97XD/6-311+G(d,p) opt=(ModRedundant) SCF=(Tight,XQC) NoSymm scrf=(smd,solvent=water)

mol_032_Z scan pt1 (R0+0.05A) rigid O-N displacement then constrained opt  [oxime: C3=N2-O1]

1 1
O        2.80625008      2.47935124      0.54870727
N        3.51824200      1.19002800      0.02647800
C        2.66406100      0.27666200     -0.24845100
C        3.33288800     -1.00961800     -0.64052900
C        2.84329700     -2.08486100      0.33107800
C        1.33834600     -2.27186700      0.19741100
C        0.56981300     -0.97823900      0.07116100
C       -0.82234300     -1.02788700      0.14310400
C       -1.57050900      0.11769200     -0.05662800
Br      -3.46584800      0.01695000      0.04421800
C       -0.96981400      1.33844700     -0.34355900
C        0.40982200      1.40246300     -0.39000100
C        1.19203000      0.26027000     -0.16515400
H        3.45190308      3.19973124      0.43446027
H        2.63792408      2.38508824      1.50620527
H        3.03044900     -1.25185700     -1.66432500
H        4.41603800     -0.89765600     -0.60961800
H        3.10382500     -1.79115700      1.35271500
H        3.35794200     -3.02338500      0.11966100
H        0.94167500     -2.84529800      1.03805700
H        1.12520500     -2.85561900     -0.70576200
H       -1.30506700     -1.97748400      0.34294700
H       -1.55995000      2.22659800     -0.52893000
H        0.87368100      2.34697000     -0.63152600

B 2 1 F

--Link1--
%chk=mol_032_Z_scan_pt1.chk
%nprocshared=10
%mem=16GB
#p wB97XD/6-311+G(d,p) Geom=Check Guess=Read Stable=Opt Pop=NBO7Read Density=Current scrf=(smd,solvent=water)

mol_032_Z SP+NBO7/CMO after constrained opt at R0+0.05A  [oxime: C3=N2-O1]

1 1

$NBO CMO PRINT=2 E2PERT=0.05 BNDIDX $END

--Link1--
%chk=mol_032_Z_scan_pt2.chk
%nprocshared=10
%mem=16GB
#p wB97XD/6-311+G(d,p) opt=(ModRedundant) SCF=(Tight,XQC) NoSymm scrf=(smd,solvent=water)

mol_032_Z scan pt2 (R0+0.10A) rigid O-N displacement then constrained opt  [oxime: C3=N2-O1]

1 1
O        2.78346915      2.52060448      0.56541654
N        3.51824200      1.19002800      0.02647800
C        2.66406100      0.27666200     -0.24845100
C        3.33288800     -1.00961800     -0.64052900
C        2.84329700     -2.08486100      0.33107800
C        1.33834600     -2.27186700      0.19741100
C        0.56981300     -0.97823900      0.07116100
C       -0.82234300     -1.02788700      0.14310400
C       -1.57050900      0.11769200     -0.05662800
Br      -3.46584800      0.01695000      0.04421800
C       -0.96981400      1.33844700     -0.34355900
C        0.40982200      1.40246300     -0.39000100
C        1.19203000      0.26027000     -0.16515400
H        3.42912215      3.24098448      0.45116954
H        2.61514315      2.42634148      1.52291454
H        3.03044900     -1.25185700     -1.66432500
H        4.41603800     -0.89765600     -0.60961800
H        3.10382500     -1.79115700      1.35271500
H        3.35794200     -3.02338500      0.11966100
H        0.94167500     -2.84529800      1.03805700
H        1.12520500     -2.85561900     -0.70576200
H       -1.30506700     -1.97748400      0.34294700
H       -1.55995000      2.22659800     -0.52893000
H        0.87368100      2.34697000     -0.63152600

B 2 1 F

--Link1--
%chk=mol_032_Z_scan_pt2.chk
%nprocshared=10
%mem=16GB
#p wB97XD/6-311+G(d,p) Geom=Check Guess=Read Stable=Opt Pop=NBO7Read Density=Current scrf=(smd,solvent=water)

mol_032_Z SP+NBO7/CMO after constrained opt at R0+0.10A  [oxime: C3=N2-O1]

1 1

$NBO CMO PRINT=2 E2PERT=0.05 BNDIDX $END

--Link1--
%chk=mol_032_Z_scan_pt3.chk
%nprocshared=10
%mem=16GB
#p wB97XD/6-311+G(d,p) opt=(ModRedundant) SCF=(Tight,XQC) NoSymm scrf=(smd,solvent=water)

mol_032_Z scan pt3 (R0+0.15A) rigid O-N displacement then constrained opt  [oxime: C3=N2-O1]

1 1
O        2.76068823      2.56185772      0.58212581
N        3.51824200      1.19002800      0.02647800
C        2.66406100      0.27666200     -0.24845100
C        3.33288800     -1.00961800     -0.64052900
C        2.84329700     -2.08486100      0.33107800
C        1.33834600     -2.27186700      0.19741100
C        0.56981300     -0.97823900      0.07116100
C       -0.82234300     -1.02788700      0.14310400
C       -1.57050900      0.11769200     -0.05662800
Br      -3.46584800      0.01695000      0.04421800
C       -0.96981400      1.33844700     -0.34355900
C        0.40982200      1.40246300     -0.39000100
C        1.19203000      0.26027000     -0.16515400
H        3.40634123      3.28223772      0.46787881
H        2.59236223      2.46759472      1.53962381
H        3.03044900     -1.25185700     -1.66432500
H        4.41603800     -0.89765600     -0.60961800
H        3.10382500     -1.79115700      1.35271500
H        3.35794200     -3.02338500      0.11966100
H        0.94167500     -2.84529800      1.03805700
H        1.12520500     -2.85561900     -0.70576200
H       -1.30506700     -1.97748400      0.34294700
H       -1.55995000      2.22659800     -0.52893000
H        0.87368100      2.34697000     -0.63152600

B 2 1 F

--Link1--
%chk=mol_032_Z_scan_pt3.chk
%nprocshared=10
%mem=16GB
#p wB97XD/6-311+G(d,p) Geom=Check Guess=Read Stable=Opt Pop=NBO7Read Density=Current scrf=(smd,solvent=water)

mol_032_Z SP+NBO7/CMO after constrained opt at R0+0.15A  [oxime: C3=N2-O1]

1 1

$NBO CMO PRINT=2 E2PERT=0.05 BNDIDX $END

--Link1--
%chk=mol_032_Z_scan_pt4.chk
%nprocshared=10
%mem=16GB
#p wB97XD/6-311+G(d,p) opt=(ModRedundant) SCF=(Tight,XQC) NoSymm scrf=(smd,solvent=water)

mol_032_Z scan pt4 (R0+0.20A) rigid O-N displacement then constrained opt  [oxime: C3=N2-O1]

1 1
O        2.73790731      2.60311096      0.59883508
N        3.51824200      1.19002800      0.02647800
C        2.66406100      0.27666200     -0.24845100
C        3.33288800     -1.00961800     -0.64052900
C        2.84329700     -2.08486100      0.33107800
C        1.33834600     -2.27186700      0.19741100
C        0.56981300     -0.97823900      0.07116100
C       -0.82234300     -1.02788700      0.14310400
C       -1.57050900      0.11769200     -0.05662800
Br      -3.46584800      0.01695000      0.04421800
C       -0.96981400      1.33844700     -0.34355900
C        0.40982200      1.40246300     -0.39000100
C        1.19203000      0.26027000     -0.16515400
H        3.38356031      3.32349096      0.48458808
H        2.56958131      2.50884796      1.55633308
H        3.03044900     -1.25185700     -1.66432500
H        4.41603800     -0.89765600     -0.60961800
H        3.10382500     -1.79115700      1.35271500
H        3.35794200     -3.02338500      0.11966100
H        0.94167500     -2.84529800      1.03805700
H        1.12520500     -2.85561900     -0.70576200
H       -1.30506700     -1.97748400      0.34294700
H       -1.55995000      2.22659800     -0.52893000
H        0.87368100      2.34697000     -0.63152600

B 2 1 F

--Link1--
%chk=mol_032_Z_scan_pt4.chk
%nprocshared=10
%mem=16GB
#p wB97XD/6-311+G(d,p) Geom=Check Guess=Read Stable=Opt Pop=NBO7Read Density=Current scrf=(smd,solvent=water)

mol_032_Z SP+NBO7/CMO after constrained opt at R0+0.20A  [oxime: C3=N2-O1]

1 1

$NBO CMO PRINT=2 E2PERT=0.05 BNDIDX $END

--Link1--
%chk=mol_032_Z_scan_pt5.chk
%nprocshared=10
%mem=16GB
#p wB97XD/6-311+G(d,p) opt=(ModRedundant) SCF=(Tight,XQC) NoSymm scrf=(smd,solvent=water)

mol_032_Z scan pt5 (R0+0.25A) rigid O-N displacement then constrained opt  [oxime: C3=N2-O1]

1 1
O        2.71512638      2.64436420      0.61554435
N        3.51824200      1.19002800      0.02647800
C        2.66406100      0.27666200     -0.24845100
C        3.33288800     -1.00961800     -0.64052900
C        2.84329700     -2.08486100      0.33107800
C        1.33834600     -2.27186700      0.19741100
C        0.56981300     -0.97823900      0.07116100
C       -0.82234300     -1.02788700      0.14310400
C       -1.57050900      0.11769200     -0.05662800
Br      -3.46584800      0.01695000      0.04421800
C       -0.96981400      1.33844700     -0.34355900
C        0.40982200      1.40246300     -0.39000100
C        1.19203000      0.26027000     -0.16515400
H        3.36077938      3.36474420      0.50129735
H        2.54680038      2.55010120      1.57304235
H        3.03044900     -1.25185700     -1.66432500
H        4.41603800     -0.89765600     -0.60961800
H        3.10382500     -1.79115700      1.35271500
H        3.35794200     -3.02338500      0.11966100
H        0.94167500     -2.84529800      1.03805700
H        1.12520500     -2.85561900     -0.70576200
H       -1.30506700     -1.97748400      0.34294700
H       -1.55995000      2.22659800     -0.52893000
H        0.87368100      2.34697000     -0.63152600

B 2 1 F

--Link1--
%chk=mol_032_Z_scan_pt5.chk
%nprocshared=10
%mem=16GB
#p wB97XD/6-311+G(d,p) Geom=Check Guess=Read Stable=Opt Pop=NBO7Read Density=Current scrf=(smd,solvent=water)

mol_032_Z SP+NBO7/CMO after constrained opt at R0+0.25A  [oxime: C3=N2-O1]

1 1

$NBO CMO PRINT=2 E2PERT=0.05 BNDIDX $END

--Link1--
%chk=mol_032_Z_scan_pt6.chk
%nprocshared=10
%mem=16GB
#p wB97XD/6-311+G(d,p) opt=(ModRedundant) SCF=(Tight,XQC) NoSymm scrf=(smd,solvent=water)

mol_032_Z scan pt6 (R0+0.30A) rigid O-N displacement then constrained opt  [oxime: C3=N2-O1]

1 1
O        2.69234546      2.68561744      0.63225362
N        3.51824200      1.19002800      0.02647800
C        2.66406100      0.27666200     -0.24845100
C        3.33288800     -1.00961800     -0.64052900
C        2.84329700     -2.08486100      0.33107800
C        1.33834600     -2.27186700      0.19741100
C        0.56981300     -0.97823900      0.07116100
C       -0.82234300     -1.02788700      0.14310400
C       -1.57050900      0.11769200     -0.05662800
Br      -3.46584800      0.01695000      0.04421800
C       -0.96981400      1.33844700     -0.34355900
C        0.40982200      1.40246300     -0.39000100
C        1.19203000      0.26027000     -0.16515400
H        3.33799846      3.40599744      0.51800662
H        2.52401946      2.59135444      1.58975162
H        3.03044900     -1.25185700     -1.66432500
H        4.41603800     -0.89765600     -0.60961800
H        3.10382500     -1.79115700      1.35271500
H        3.35794200     -3.02338500      0.11966100
H        0.94167500     -2.84529800      1.03805700
H        1.12520500     -2.85561900     -0.70576200
H       -1.30506700     -1.97748400      0.34294700
H       -1.55995000      2.22659800     -0.52893000
H        0.87368100      2.34697000     -0.63152600

B 2 1 F

--Link1--
%chk=mol_032_Z_scan_pt6.chk
%nprocshared=10
%mem=16GB
#p wB97XD/6-311+G(d,p) Geom=Check Guess=Read Stable=Opt Pop=NBO7Read Density=Current scrf=(smd,solvent=water)

mol_032_Z SP+NBO7/CMO after constrained opt at R0+0.30A  [oxime: C3=N2-O1]

1 1

$NBO CMO PRINT=2 E2PERT=0.05 BNDIDX $END


