%chk=mol_032_Z_opt.chk
%nprocshared=10
%mem=16GB
#p wB97XD/6-311+G(d,p) opt scrf=(smd,solvent=water)

mol_032_Z opt  [oxime: C3=N2-O1]

1 1
O       -0.67540000     -3.08630000      0.37610000
N       -1.77590000     -1.86490000     -0.04680000
C       -1.15240000     -0.77880000     -0.26820000
C       -2.19930000      0.29930000     -0.47180000
C       -1.92010000      1.40780000      0.53240000
C       -0.52820000      1.97900000      0.31390000
C        0.54750000      0.95120000      0.08870000
C        1.87750000      1.33540000      0.18070000
C        2.88840000      0.44510000     -0.14620000
Br       4.68410000      0.99780000     -0.03620000
C        2.60260000     -0.85030000     -0.57160000
C        1.29120000     -1.25600000     -0.63040000
C        0.25140000     -0.38160000     -0.27330000
H       -1.25920000     -3.86640000      0.32920000
H       -0.46170000     -2.92060000      1.31550000
H       -2.09220000      0.66580000     -1.49310000
H       -3.20000000     -0.11140000     -0.37580000
H       -2.02590000      1.01610000      1.54490000
H       -2.66270000      2.19530000      0.42260000
H       -0.24750000      2.62480000      1.14490000
H       -0.54550000      2.62360000     -0.56830000
H        2.12320000      2.34150000      0.49020000
H        3.40000000     -1.51760000     -0.85870000
H        1.08020000     -2.24870000     -0.99910000


