%chk=mol_002_E_sp2.chk
%nprocshared=8
%mem=16GB
#p wB97XD/6-311+G(d,p) sp pop=nbo7read scrf=(smd,solvent=water)

mol_002_E_sp2  R(N-O)=1.6092A  [oxime: C11=N12-O13]

1 1
C       -4.32689000      0.61480600     -0.03466600
O       -3.52687600     -0.56589400     -0.00454900
C       -2.18356600     -0.43263800      0.00719800
C       -1.46329700     -1.64471400      0.01908600
C       -0.08883900     -1.63763400      0.02464400
C        0.57374500     -0.40282000      0.02005100
C       -0.13698500      0.79664400      0.01382500
C       -1.52632900      0.79639200      0.00717400
C        0.77779500      1.98732200      0.01016800
C        2.19572300      1.38792600      0.00500500
C        1.99616000     -0.10094600      0.00337100
N        2.85050600     -1.05416900     -0.01447600
O        4.29499600     -0.34640000     -0.05808400
H       -5.35890300      0.27056900     -0.04893700
H       -4.12194600      1.19946400     -0.93523900
H       -4.15493300      1.22395200      0.85642300
H       -2.01740600     -2.57557800      0.02082400
H        0.46174800     -2.57054900      0.03090100
H       -2.07003600      1.73178700     -0.00018900
H        0.60170100      2.60965500     -0.86941900
H        0.60772600      2.61012400      0.89062900
H        2.77866000      1.66967100      0.88401800
H        2.77447000      1.67269300     -0.87529100
H        4.67272300     -0.43234000      0.83617600
H        4.82260300     -0.91794800     -0.64264400

$NBO E2PERT BNDIDX NBOSUM CMO $END


