%chk=mol_002_E_sp4.chk
%nprocshared=8
%mem=16GB
#p wB97XD/6-311+G(d,p) sp pop=nbo7read scrf=(smd,solvent=water)

mol_002_E_sp4  R(N-O)=1.8092A  [oxime: C11=N12-O13]

1 1
C       -4.33500500      0.63825700     -0.01246600
O       -3.54408200     -0.54946100     -0.00240800
C       -2.20117800     -0.42790200      0.00287000
C       -1.49062600     -1.64590600      0.00609200
C       -0.11665800     -1.65108900      0.00856500
C        0.55348700     -0.42049100      0.00800000
C       -0.14495500      0.78727500      0.00676700
C       -1.53376400      0.79568700      0.00435700
C        0.77507600      1.97142800      0.00791200
C        2.18919500      1.36740600     -0.01208000
C        1.98423700     -0.12354000     -0.00074800
N        2.81465800     -1.08626100      0.00179900
O        4.43306400     -0.27854000     -0.03571700
H       -5.36967700      0.30212200     -0.01924100
H       -4.13453700      1.23000100     -0.90927700
H       -4.14832400      1.23633400      0.88308000
H       -2.05175500     -2.57242800      0.00492800
H        0.42549600     -2.58859900      0.00929400
H       -2.06911500      1.73581400      0.00239900
H        0.59753600      2.60411100     -0.86364000
H        0.61594200      2.58417700      0.89734300
H        2.78904800      1.64429500      0.85598100
H        2.75594800      1.63114300     -0.90614200
H        4.77789500     -0.45529100      0.85489600
H        4.91822500     -0.87060200     -0.63282400

$NBO E2PERT BNDIDX NBOSUM CMO $END


