%chk=mol_012_E.chk
%nprocshared=8
%mem=16GB
#p wB97XD/6-311+G(d,p) sp pop=nboread

mol_012_E  [oxime: C10=N11-O12]

1 1
O        3.80170000      1.82970000      0.18360000
N        3.74940000      0.64500000     -0.12440000
O        4.70340000     -0.07190000     -0.39070000
C        2.40430000      0.02620000     -0.17850000
C        2.29150000     -1.32120000     -0.51740000
C        1.04410000     -1.92460000     -0.57450000
C       -0.08460000     -1.17040000     -0.29120000
C        0.06070000      0.18540000      0.04560000
C        1.30350000      0.80810000      0.10960000
C       -1.26520000      0.74090000      0.28860000
N       -1.35270000      1.97410000      0.61380000
O       -2.95060000      2.29740000      0.81390000
C       -2.30870000     -0.32510000      0.08890000
C       -1.52280000     -1.59260000     -0.28380000
H        3.18780000     -1.88100000     -0.73290000
H        0.96450000     -2.96970000     -0.83770000
H        1.42260000      1.84790000      0.36930000
H       -2.97020000      2.65910000      1.72250000
H       -3.08160000      3.04980000      0.20290000
H       -2.89110000     -0.43360000      1.00140000
H       -2.99860000     -0.00450000     -0.68910000
H       -1.68730000     -2.39110000      0.43630000
H       -1.82040000     -1.97770000     -1.25630000
$NBO E2PERT BNDIDX NBOSUM $END


