21
mol_004_Z_opt
O       -2.093300      2.303600      0.721100
N       -2.425400      0.629200      0.737800
C       -1.361200      0.001700      0.439800
C       -1.597700     -1.510900      0.445500
C       -0.332100     -2.098600     -0.207900
C        0.615500     -0.949500     -0.294300
C        1.936100     -0.978000     -0.689600
C        2.642900      0.218000     -0.711200
Cl       4.299500      0.208000     -1.200900
C        2.058000      1.433600     -0.345300
C        0.741200      1.463300      0.047900
C        0.011500      0.269200      0.070800
H       -2.612000      2.584100      1.499100
H       -2.576300      2.596700     -0.075300
H       -1.704400     -1.833500      1.477700
H       -2.515400     -1.775700     -0.068400
H        0.082400     -2.927800      0.360000
H       -0.553000     -2.484400     -1.202100
H        2.422900     -1.898100     -0.976100
H        2.643700      2.338800     -0.369100
H        0.317400      2.410300      0.340000
