%chk=mol_001_E.chk
%nprocshared=8
%mem=16GB
#p wB97XD/6-311+G(d,p) sp pop=nbo7read

mol_001_E  [oxime: C3=N2-O1]

1 1
O        3.40380000      1.10430000     -0.02740000
N        1.80330000      1.50130000      0.06240000
C        1.14430000      0.40790000     -0.00590000
C        1.59500000     -1.02170000     -0.14010000
C        0.30180000     -1.84950000     -0.17420000
C       -0.80120000     -0.84360000     -0.04560000
C       -2.16610000     -1.06000000     -0.01500000
C       -3.01420000      0.03240000      0.11030000
C       -2.51880000      1.33430000      0.20530000
C       -1.15810000      1.57230000      0.17680000
C       -0.30950000      0.46860000      0.05070000
H        3.69870000      1.65490000     -0.77860000
H        3.75320000      1.51620000      0.78660000
H        2.19580000     -1.12260000     -1.04190000
H        2.24180000     -1.26770000      0.70000000
H        0.21420000     -2.41140000     -1.10110000
H        0.27100000     -2.57380000      0.63610000
H       -2.57390000     -2.05850000     -0.08690000
H       -4.08350000     -0.12790000      0.13510000
H       -3.21010000      2.15920000      0.30180000
H       -0.78750000      2.58520000      0.25120000
$NBO E2PERT BNDIDX NBOSUM CMO $END


