23
mol_018_E_opt
O       -2.665300     -2.299100     -0.345200
N       -3.076800     -1.144600     -0.255500
O       -4.249900     -0.805900     -0.247500
C       -2.055700     -0.074700     -0.148200
C       -2.486600      1.244400     -0.076100
C       -1.573400      2.287500      0.024900
C       -0.214800      2.029000      0.056800
C        0.201300      0.698600     -0.015300
C       -0.700000     -0.374100     -0.119300
C        0.011700     -1.696400     -0.181400
C        1.506600     -1.345900     -0.096300
C        1.557900      0.148400      0.000100
N        2.535600      0.963700      0.088600
O        3.918800      0.033400      0.082600
H       -3.547300      1.444800     -0.099800
H       -1.941900      3.301400      0.078200
H        0.487300      2.847800      0.135600
H       -0.232300     -2.224100     -1.099300
H       -0.303400     -2.344800      0.631500
H        1.996200     -1.779800      0.773800
H        2.070600     -1.672500     -0.968100
H        4.410400      0.430400     -0.663800
H        4.351400      0.332700      0.907000
