%chk=mol_027_E_opt.chk
%nprocshared=8
%mem=16GB
#p wB97XD/6-311+G(d,p) opt scrf=(smd,solvent=water)

mol_027_E opt  [oxime: C10=N11-O12]

1 1
O        4.89980000     -0.29180000     -0.53610000
N        3.96220000      0.47980000     -0.38600000
O        4.03850000      1.70300000     -0.33370000
C        2.61700000     -0.12010000     -0.25520000
C        2.47410000     -1.50180000     -0.30510000
C        1.21160000     -2.05250000     -0.18220000
C        0.08420000     -1.25030000     -0.01050000
C        0.25610000      0.14860000      0.03820000
C        1.53070000      0.70940000     -0.08440000
C       -0.93410000      1.01000000      0.23550000
N       -0.60780000      2.22500000      0.46120000
O       -2.03150000      3.08400000      0.75760000
C       -2.31090000      0.41980000      0.18580000
C       -2.33780000     -0.94540000     -0.47760000
C       -1.27820000     -1.85120000      0.11920000
H        3.34780000     -2.12050000     -0.43930000
H        1.09290000     -3.12580000     -0.22450000
H        1.67460000      1.77910000     -0.05170000
H       -1.78610000      3.53750000      1.58830000
H       -1.98430000      3.75600000      0.04880000
H       -2.64300000      0.35580000      1.22470000
H       -2.98430000      1.11840000     -0.30630000
H       -2.17110000     -0.84010000     -1.55030000
H       -3.32490000     -1.37940000     -0.34630000
H       -1.49070000     -2.01660000      1.18070000
H       -1.30490000     -2.83100000     -0.35100000


