%chk=mol_027_E_scan_pt1.chk
%nprocshared=8
%mem=16GB
#p wB97XD/6-311+G(d,p) opt=(ModRedundant) SCF=(Tight,XQC) NoSymm scrf=(smd,solvent=water)

mol_027_E scan pt1 (R0+0.05A) rigid O-N displacement then constrained opt  [oxime: C10=N11-O12]

1 1
O       -4.25373400      0.05305000     -0.00397600
N       -3.21030700      0.67301300      0.10831400
O       -3.16267100      1.87459800      0.30854800
C       -1.95215900     -0.06462300     -0.00576900
C       -1.99155400     -1.44299200     -0.18487300
C       -0.79629700     -2.13035400     -0.26870800
C        0.42872300     -1.46587200     -0.18749700
C        0.43351000     -0.06991100     -0.03019400
C       -0.76487100      0.63491200      0.07552000
C        1.73317100      0.63805400     -0.01079900
N        1.65047200      1.88831300     -0.28332800
O        3.07782986      2.48913126     -0.23664549
C        3.00042200     -0.12336500      0.24397600
C        2.75271900     -1.56475000      0.66790800
C        1.72444400     -2.22184500     -0.24503900
H       -2.93752800     -1.96421900     -0.24112600
H       -0.80651800     -3.20703400     -0.38914800
H       -0.77149800      1.70553600      0.22459300
H        3.20348786      2.96162926     -1.08127349
H        3.09536486      3.16190826      0.47164651
H        3.57096700     -0.09479100     -0.69152900
H        3.58910400      0.41692800      0.98695500
H        2.39441700     -1.59381800      1.70123900
H        3.69712000     -2.10941100      0.63220900
H        2.09236900     -2.21970800     -1.27838200
H        1.55215700     -3.26218800      0.03441700

B 11 12 F

--Link1--
%chk=mol_027_E_scan_pt1.chk
%nprocshared=8
%mem=16GB
#p wB97XD/6-311+G(d,p) Geom=Check Guess=Read Stable=Opt Pop=NBO7Read Density=Current scrf=(smd,solvent=water)

mol_027_E SP+NBO7/CMO after constrained opt at R0+0.05A  [oxime: C10=N11-O12]

1 1

$NBO CMO PRINT=2 E2PERT=0.05 BNDIDX $END

--Link1--
%chk=mol_027_E_scan_pt2.chk
%nprocshared=8
%mem=16GB
#p wB97XD/6-311+G(d,p) opt=(ModRedundant) SCF=(Tight,XQC) NoSymm scrf=(smd,solvent=water)

mol_027_E scan pt2 (R0+0.10A) rigid O-N displacement then constrained opt  [oxime: C10=N11-O12]

1 1
O       -4.25373400      0.05305000     -0.00397600
N       -3.21030700      0.67301300      0.10831400
O       -3.16267100      1.87459800      0.30854800
C       -1.95215900     -0.06462300     -0.00576900
C       -1.99155400     -1.44299200     -0.18487300
C       -0.79629700     -2.13035400     -0.26870800
C        0.42872300     -1.46587200     -0.18749700
C        0.43351000     -0.06991100     -0.03019400
C       -0.76487100      0.63491200      0.07552000
C        1.73317100      0.63805400     -0.01079900
N        1.65047200      1.88831300     -0.28332800
O        3.12389272      2.50852051     -0.23513898
C        3.00042200     -0.12336500      0.24397600
C        2.75271900     -1.56475000      0.66790800
C        1.72444400     -2.22184500     -0.24503900
H       -2.93752800     -1.96421900     -0.24112600
H       -0.80651800     -3.20703400     -0.38914800
H       -0.77149800      1.70553600      0.22459300
H        3.24955072      2.98101851     -1.07976698
H        3.14142772      3.18129751      0.47315302
H        3.57096700     -0.09479100     -0.69152900
H        3.58910400      0.41692800      0.98695500
H        2.39441700     -1.59381800      1.70123900
H        3.69712000     -2.10941100      0.63220900
H        2.09236900     -2.21970800     -1.27838200
H        1.55215700     -3.26218800      0.03441700

B 11 12 F

--Link1--
%chk=mol_027_E_scan_pt2.chk
%nprocshared=8
%mem=16GB
#p wB97XD/6-311+G(d,p) Geom=Check Guess=Read Stable=Opt Pop=NBO7Read Density=Current scrf=(smd,solvent=water)

mol_027_E SP+NBO7/CMO after constrained opt at R0+0.10A  [oxime: C10=N11-O12]

1 1

$NBO CMO PRINT=2 E2PERT=0.05 BNDIDX $END

--Link1--
%chk=mol_027_E_scan_pt3.chk
%nprocshared=8
%mem=16GB
#p wB97XD/6-311+G(d,p) opt=(ModRedundant) SCF=(Tight,XQC) NoSymm scrf=(smd,solvent=water)

mol_027_E scan pt3 (R0+0.15A) rigid O-N displacement then constrained opt  [oxime: C10=N11-O12]

1 1
O       -4.25373400      0.05305000     -0.00397600
N       -3.21030700      0.67301300      0.10831400
O       -3.16267100      1.87459800      0.30854800
C       -1.95215900     -0.06462300     -0.00576900
C       -1.99155400     -1.44299200     -0.18487300
C       -0.79629700     -2.13035400     -0.26870800
C        0.42872300     -1.46587200     -0.18749700
C        0.43351000     -0.06991100     -0.03019400
C       -0.76487100      0.63491200      0.07552000
C        1.73317100      0.63805400     -0.01079900
N        1.65047200      1.88831300     -0.28332800
O        3.16995558      2.52790977     -0.23363247
C        3.00042200     -0.12336500      0.24397600
C        2.75271900     -1.56475000      0.66790800
C        1.72444400     -2.22184500     -0.24503900
H       -2.93752800     -1.96421900     -0.24112600
H       -0.80651800     -3.20703400     -0.38914800
H       -0.77149800      1.70553600      0.22459300
H        3.29561358      3.00040777     -1.07826047
H        3.18749058      3.20068677      0.47465953
H        3.57096700     -0.09479100     -0.69152900
H        3.58910400      0.41692800      0.98695500
H        2.39441700     -1.59381800      1.70123900
H        3.69712000     -2.10941100      0.63220900
H        2.09236900     -2.21970800     -1.27838200
H        1.55215700     -3.26218800      0.03441700

B 11 12 F

--Link1--
%chk=mol_027_E_scan_pt3.chk
%nprocshared=8
%mem=16GB
#p wB97XD/6-311+G(d,p) Geom=Check Guess=Read Stable=Opt Pop=NBO7Read Density=Current scrf=(smd,solvent=water)

mol_027_E SP+NBO7/CMO after constrained opt at R0+0.15A  [oxime: C10=N11-O12]

1 1

$NBO CMO PRINT=2 E2PERT=0.05 BNDIDX $END

--Link1--
%chk=mol_027_E_scan_pt4.chk
%nprocshared=8
%mem=16GB
#p wB97XD/6-311+G(d,p) opt=(ModRedundant) SCF=(Tight,XQC) NoSymm scrf=(smd,solvent=water)

mol_027_E scan pt4 (R0+0.20A) rigid O-N displacement then constrained opt  [oxime: C10=N11-O12]

1 1
O       -4.25373400      0.05305000     -0.00397600
N       -3.21030700      0.67301300      0.10831400
O       -3.16267100      1.87459800      0.30854800
C       -1.95215900     -0.06462300     -0.00576900
C       -1.99155400     -1.44299200     -0.18487300
C       -0.79629700     -2.13035400     -0.26870800
C        0.42872300     -1.46587200     -0.18749700
C        0.43351000     -0.06991100     -0.03019400
C       -0.76487100      0.63491200      0.07552000
C        1.73317100      0.63805400     -0.01079900
N        1.65047200      1.88831300     -0.28332800
O        3.21601844      2.54729903     -0.23212596
C        3.00042200     -0.12336500      0.24397600
C        2.75271900     -1.56475000      0.66790800
C        1.72444400     -2.22184500     -0.24503900
H       -2.93752800     -1.96421900     -0.24112600
H       -0.80651800     -3.20703400     -0.38914800
H       -0.77149800      1.70553600      0.22459300
H        3.34167644      3.01979703     -1.07675396
H        3.23355344      3.22007603      0.47616604
H        3.57096700     -0.09479100     -0.69152900
H        3.58910400      0.41692800      0.98695500
H        2.39441700     -1.59381800      1.70123900
H        3.69712000     -2.10941100      0.63220900
H        2.09236900     -2.21970800     -1.27838200
H        1.55215700     -3.26218800      0.03441700

B 11 12 F

--Link1--
%chk=mol_027_E_scan_pt4.chk
%nprocshared=8
%mem=16GB
#p wB97XD/6-311+G(d,p) Geom=Check Guess=Read Stable=Opt Pop=NBO7Read Density=Current scrf=(smd,solvent=water)

mol_027_E SP+NBO7/CMO after constrained opt at R0+0.20A  [oxime: C10=N11-O12]

1 1

$NBO CMO PRINT=2 E2PERT=0.05 BNDIDX $END

--Link1--
%chk=mol_027_E_scan_pt5.chk
%nprocshared=8
%mem=16GB
#p wB97XD/6-311+G(d,p) opt=(ModRedundant) SCF=(Tight,XQC) NoSymm scrf=(smd,solvent=water)

mol_027_E scan pt5 (R0+0.25A) rigid O-N displacement then constrained opt  [oxime: C10=N11-O12]

1 1
O       -4.25373400      0.05305000     -0.00397600
N       -3.21030700      0.67301300      0.10831400
O       -3.16267100      1.87459800      0.30854800
C       -1.95215900     -0.06462300     -0.00576900
C       -1.99155400     -1.44299200     -0.18487300
C       -0.79629700     -2.13035400     -0.26870800
C        0.42872300     -1.46587200     -0.18749700
C        0.43351000     -0.06991100     -0.03019400
C       -0.76487100      0.63491200      0.07552000
C        1.73317100      0.63805400     -0.01079900
N        1.65047200      1.88831300     -0.28332800
O        3.26208130      2.56668828     -0.23061945
C        3.00042200     -0.12336500      0.24397600
C        2.75271900     -1.56475000      0.66790800
C        1.72444400     -2.22184500     -0.24503900
H       -2.93752800     -1.96421900     -0.24112600
H       -0.80651800     -3.20703400     -0.38914800
H       -0.77149800      1.70553600      0.22459300
H        3.38773930      3.03918628     -1.07524745
H        3.27961630      3.23946528      0.47767255
H        3.57096700     -0.09479100     -0.69152900
H        3.58910400      0.41692800      0.98695500
H        2.39441700     -1.59381800      1.70123900
H        3.69712000     -2.10941100      0.63220900
H        2.09236900     -2.21970800     -1.27838200
H        1.55215700     -3.26218800      0.03441700

B 11 12 F

--Link1--
%chk=mol_027_E_scan_pt5.chk
%nprocshared=8
%mem=16GB
#p wB97XD/6-311+G(d,p) Geom=Check Guess=Read Stable=Opt Pop=NBO7Read Density=Current scrf=(smd,solvent=water)

mol_027_E SP+NBO7/CMO after constrained opt at R0+0.25A  [oxime: C10=N11-O12]

1 1

$NBO CMO PRINT=2 E2PERT=0.05 BNDIDX $END

--Link1--
%chk=mol_027_E_scan_pt6.chk
%nprocshared=8
%mem=16GB
#p wB97XD/6-311+G(d,p) opt=(ModRedundant) SCF=(Tight,XQC) NoSymm scrf=(smd,solvent=water)

mol_027_E scan pt6 (R0+0.30A) rigid O-N displacement then constrained opt  [oxime: C10=N11-O12]

1 1
O       -4.25373400      0.05305000     -0.00397600
N       -3.21030700      0.67301300      0.10831400
O       -3.16267100      1.87459800      0.30854800
C       -1.95215900     -0.06462300     -0.00576900
C       -1.99155400     -1.44299200     -0.18487300
C       -0.79629700     -2.13035400     -0.26870800
C        0.42872300     -1.46587200     -0.18749700
C        0.43351000     -0.06991100     -0.03019400
C       -0.76487100      0.63491200      0.07552000
C        1.73317100      0.63805400     -0.01079900
N        1.65047200      1.88831300     -0.28332800
O        3.30814417      2.58607754     -0.22911294
C        3.00042200     -0.12336500      0.24397600
C        2.75271900     -1.56475000      0.66790800
C        1.72444400     -2.22184500     -0.24503900
H       -2.93752800     -1.96421900     -0.24112600
H       -0.80651800     -3.20703400     -0.38914800
H       -0.77149800      1.70553600      0.22459300
H        3.43380217      3.05857554     -1.07374094
H        3.32567917      3.25885454      0.47917906
H        3.57096700     -0.09479100     -0.69152900
H        3.58910400      0.41692800      0.98695500
H        2.39441700     -1.59381800      1.70123900
H        3.69712000     -2.10941100      0.63220900
H        2.09236900     -2.21970800     -1.27838200
H        1.55215700     -3.26218800      0.03441700

B 11 12 F

--Link1--
%chk=mol_027_E_scan_pt6.chk
%nprocshared=8
%mem=16GB
#p wB97XD/6-311+G(d,p) Geom=Check Guess=Read Stable=Opt Pop=NBO7Read Density=Current scrf=(smd,solvent=water)

mol_027_E SP+NBO7/CMO after constrained opt at R0+0.30A  [oxime: C10=N11-O12]

1 1

$NBO CMO PRINT=2 E2PERT=0.05 BNDIDX $END


