21
mol_003_E_opt
O        3.308200      1.191700     -0.854100
N        1.719500      1.546900     -0.628700
C        1.118200      0.443400     -0.381500
C        1.635900     -0.966800     -0.283200
C        0.407200     -1.826700      0.044100
C       -0.734900     -0.857300      0.099000
C       -2.065700     -1.122200      0.349600
C       -2.943600     -0.048000      0.350200
F       -4.234500     -0.281500      0.589600
C       -2.544100      1.267500      0.112500
C       -1.214900      1.532900     -0.138700
C       -0.313600      0.462100     -0.145100
H        3.737400      1.777100     -0.200100
H        3.473800      1.576100     -1.737100
H        2.108300     -1.236500     -1.225700
H        2.407200     -1.011300      0.483100
H        0.524600     -2.345500      0.992400
H        0.239100     -2.588900     -0.712500
H       -2.437500     -2.118400      0.541100
H       -3.284000      2.053600      0.129600
H       -0.906200      2.552100     -0.322300
