27
mol_028_E_opt
C        2.326200      1.539000      0.452900
C        0.846800      1.567300      0.193200
C        0.210800      2.802900      0.200600
C       -1.158300      2.924200      0.013000
C       -1.937900      1.795900     -0.171300
C       -1.357500      0.535000     -0.179900
C        0.042100      0.417300     -0.027500
C        0.600000     -0.959400     -0.151600
N        1.812100     -0.967100     -0.541100
O        2.280100     -2.627500     -0.724000
C       -0.273000     -2.170400      0.094600
C       -1.676600     -1.807000      0.544400
C       -2.211500     -0.686200     -0.323400
H        2.594300      0.808500      1.214200
H        2.661700      2.514700      0.792700
H        2.895500      1.285200     -0.439200
H        0.797700      3.697600      0.359300
H       -1.613700      3.905100      0.017900
H       -3.007900      1.891900     -0.302000
H        2.963200     -2.703800     -0.030800
H        2.745100     -2.560100     -1.579600
H       -0.314000     -2.711700     -0.851300
H        0.220800     -2.830300      0.807400
H       -1.671200     -1.493000      1.588200
H       -2.308200     -2.688500      0.471900
H       -3.243400     -0.468300     -0.060600
H       -2.223500     -1.011500     -1.367800
