%chk=mol_004_E_scan_pt1.chk
%nprocshared=8
%mem=16GB
#p wB97XD/6-311+G(d,p) opt=(ModRedundant) SCF=(Tight,XQC) NoSymm scrf=(smd,solvent=water)

mol_004_E scan pt1 (R0+0.05A) rigid O-N displacement then constrained opt  [oxime: C3=N2-O1]

1 1
O        4.21986179     -0.61682157     -0.00162304
N        2.76122100     -1.16138700      0.00962000
C        1.98285300     -0.14455800      0.00467100
C        2.30120400      1.32187600     -0.00328100
C        0.93670700      2.03655400      0.00633900
C       -0.07225900      0.92439500      0.00478500
C       -1.45814800      1.02610600      0.00234300
C       -2.18791300     -0.15191200     -0.00003900
Cl      -3.93544800     -0.05907700     -0.00488400
C       -1.59128000     -1.41529900      0.00028100
C       -0.21187000     -1.50914600      0.00295500
C        0.53470800     -0.33088300      0.00522900
H        4.63107879     -0.90241057     -0.83924704
H        4.70073179     -1.06174057      0.72101896
H        2.89438900      1.55736800     -0.88912900
H        2.91232200      1.56283500      0.86861400
H        0.81818100      2.66486500      0.89119200
H        0.81040300      2.67653800     -0.86884200
H       -1.95076500      1.99059300      0.00166600
H       -2.20458300     -2.30722900     -0.00229100
H        0.26780700     -2.48014500      0.00239400

B 2 1 F

--Link1--
%chk=mol_004_E_scan_pt1.chk
%nprocshared=8
%mem=16GB
#p wB97XD/6-311+G(d,p) Geom=Check Guess=Read Stable=Opt Pop=NBO7Read Density=Current scrf=(smd,solvent=water)

mol_004_E SP+NBO7/CMO after constrained opt at R0+0.05A  [oxime: C3=N2-O1]

1 1

$NBO CMO PRINT=2 E2PERT=0.05 BNDIDX $END

--Link1--
%chk=mol_004_E_scan_pt2.chk
%nprocshared=8
%mem=16GB
#p wB97XD/6-311+G(d,p) opt=(ModRedundant) SCF=(Tight,XQC) NoSymm scrf=(smd,solvent=water)

mol_004_E scan pt2 (R0+0.10A) rigid O-N displacement then constrained opt  [oxime: C3=N2-O1]

1 1
O        4.26670258     -0.59933415     -0.00198409
N        2.76122100     -1.16138700      0.00962000
C        1.98285300     -0.14455800      0.00467100
C        2.30120400      1.32187600     -0.00328100
C        0.93670700      2.03655400      0.00633900
C       -0.07225900      0.92439500      0.00478500
C       -1.45814800      1.02610600      0.00234300
C       -2.18791300     -0.15191200     -0.00003900
Cl      -3.93544800     -0.05907700     -0.00488400
C       -1.59128000     -1.41529900      0.00028100
C       -0.21187000     -1.50914600      0.00295500
C        0.53470800     -0.33088300      0.00522900
H        4.67791958     -0.88492315     -0.83960809
H        4.74757258     -1.04425315      0.72065791
H        2.89438900      1.55736800     -0.88912900
H        2.91232200      1.56283500      0.86861400
H        0.81818100      2.66486500      0.89119200
H        0.81040300      2.67653800     -0.86884200
H       -1.95076500      1.99059300      0.00166600
H       -2.20458300     -2.30722900     -0.00229100
H        0.26780700     -2.48014500      0.00239400

B 2 1 F

--Link1--
%chk=mol_004_E_scan_pt2.chk
%nprocshared=8
%mem=16GB
#p wB97XD/6-311+G(d,p) Geom=Check Guess=Read Stable=Opt Pop=NBO7Read Density=Current scrf=(smd,solvent=water)

mol_004_E SP+NBO7/CMO after constrained opt at R0+0.10A  [oxime: C3=N2-O1]

1 1

$NBO CMO PRINT=2 E2PERT=0.05 BNDIDX $END

--Link1--
%chk=mol_004_E_scan_pt3.chk
%nprocshared=8
%mem=16GB
#p wB97XD/6-311+G(d,p) opt=(ModRedundant) SCF=(Tight,XQC) NoSymm scrf=(smd,solvent=water)

mol_004_E scan pt3 (R0+0.15A) rigid O-N displacement then constrained opt  [oxime: C3=N2-O1]

1 1
O        4.31354337     -0.58184672     -0.00234513
N        2.76122100     -1.16138700      0.00962000
C        1.98285300     -0.14455800      0.00467100
C        2.30120400      1.32187600     -0.00328100
C        0.93670700      2.03655400      0.00633900
C       -0.07225900      0.92439500      0.00478500
C       -1.45814800      1.02610600      0.00234300
C       -2.18791300     -0.15191200     -0.00003900
Cl      -3.93544800     -0.05907700     -0.00488400
C       -1.59128000     -1.41529900      0.00028100
C       -0.21187000     -1.50914600      0.00295500
C        0.53470800     -0.33088300      0.00522900
H        4.72476037     -0.86743572     -0.83996913
H        4.79441337     -1.02676572      0.72029687
H        2.89438900      1.55736800     -0.88912900
H        2.91232200      1.56283500      0.86861400
H        0.81818100      2.66486500      0.89119200
H        0.81040300      2.67653800     -0.86884200
H       -1.95076500      1.99059300      0.00166600
H       -2.20458300     -2.30722900     -0.00229100
H        0.26780700     -2.48014500      0.00239400

B 2 1 F

--Link1--
%chk=mol_004_E_scan_pt3.chk
%nprocshared=8
%mem=16GB
#p wB97XD/6-311+G(d,p) Geom=Check Guess=Read Stable=Opt Pop=NBO7Read Density=Current scrf=(smd,solvent=water)

mol_004_E SP+NBO7/CMO after constrained opt at R0+0.15A  [oxime: C3=N2-O1]

1 1

$NBO CMO PRINT=2 E2PERT=0.05 BNDIDX $END

--Link1--
%chk=mol_004_E_scan_pt4.chk
%nprocshared=8
%mem=16GB
#p wB97XD/6-311+G(d,p) opt=(ModRedundant) SCF=(Tight,XQC) NoSymm scrf=(smd,solvent=water)

mol_004_E scan pt4 (R0+0.20A) rigid O-N displacement then constrained opt  [oxime: C3=N2-O1]

1 1
O        4.36038416     -0.56435929     -0.00270617
N        2.76122100     -1.16138700      0.00962000
C        1.98285300     -0.14455800      0.00467100
C        2.30120400      1.32187600     -0.00328100
C        0.93670700      2.03655400      0.00633900
C       -0.07225900      0.92439500      0.00478500
C       -1.45814800      1.02610600      0.00234300
C       -2.18791300     -0.15191200     -0.00003900
Cl      -3.93544800     -0.05907700     -0.00488400
C       -1.59128000     -1.41529900      0.00028100
C       -0.21187000     -1.50914600      0.00295500
C        0.53470800     -0.33088300      0.00522900
H        4.77160116     -0.84994829     -0.84033017
H        4.84125416     -1.00927829      0.71993583
H        2.89438900      1.55736800     -0.88912900
H        2.91232200      1.56283500      0.86861400
H        0.81818100      2.66486500      0.89119200
H        0.81040300      2.67653800     -0.86884200
H       -1.95076500      1.99059300      0.00166600
H       -2.20458300     -2.30722900     -0.00229100
H        0.26780700     -2.48014500      0.00239400

B 2 1 F

--Link1--
%chk=mol_004_E_scan_pt4.chk
%nprocshared=8
%mem=16GB
#p wB97XD/6-311+G(d,p) Geom=Check Guess=Read Stable=Opt Pop=NBO7Read Density=Current scrf=(smd,solvent=water)

mol_004_E SP+NBO7/CMO after constrained opt at R0+0.20A  [oxime: C3=N2-O1]

1 1

$NBO CMO PRINT=2 E2PERT=0.05 BNDIDX $END

--Link1--
%chk=mol_004_E_scan_pt5.chk
%nprocshared=8
%mem=16GB
#p wB97XD/6-311+G(d,p) opt=(ModRedundant) SCF=(Tight,XQC) NoSymm scrf=(smd,solvent=water)

mol_004_E scan pt5 (R0+0.25A) rigid O-N displacement then constrained opt  [oxime: C3=N2-O1]

1 1
O        4.40722495     -0.54687186     -0.00306722
N        2.76122100     -1.16138700      0.00962000
C        1.98285300     -0.14455800      0.00467100
C        2.30120400      1.32187600     -0.00328100
C        0.93670700      2.03655400      0.00633900
C       -0.07225900      0.92439500      0.00478500
C       -1.45814800      1.02610600      0.00234300
C       -2.18791300     -0.15191200     -0.00003900
Cl      -3.93544800     -0.05907700     -0.00488400
C       -1.59128000     -1.41529900      0.00028100
C       -0.21187000     -1.50914600      0.00295500
C        0.53470800     -0.33088300      0.00522900
H        4.81844195     -0.83246086     -0.84069122
H        4.88809495     -0.99179086      0.71957478
H        2.89438900      1.55736800     -0.88912900
H        2.91232200      1.56283500      0.86861400
H        0.81818100      2.66486500      0.89119200
H        0.81040300      2.67653800     -0.86884200
H       -1.95076500      1.99059300      0.00166600
H       -2.20458300     -2.30722900     -0.00229100
H        0.26780700     -2.48014500      0.00239400

B 2 1 F

--Link1--
%chk=mol_004_E_scan_pt5.chk
%nprocshared=8
%mem=16GB
#p wB97XD/6-311+G(d,p) Geom=Check Guess=Read Stable=Opt Pop=NBO7Read Density=Current scrf=(smd,solvent=water)

mol_004_E SP+NBO7/CMO after constrained opt at R0+0.25A  [oxime: C3=N2-O1]

1 1

$NBO CMO PRINT=2 E2PERT=0.05 BNDIDX $END

--Link1--
%chk=mol_004_E_scan_pt6.chk
%nprocshared=8
%mem=16GB
#p wB97XD/6-311+G(d,p) opt=(ModRedundant) SCF=(Tight,XQC) NoSymm scrf=(smd,solvent=water)

mol_004_E scan pt6 (R0+0.30A) rigid O-N displacement then constrained opt  [oxime: C3=N2-O1]

1 1
O        4.45406574     -0.52938444     -0.00342826
N        2.76122100     -1.16138700      0.00962000
C        1.98285300     -0.14455800      0.00467100
C        2.30120400      1.32187600     -0.00328100
C        0.93670700      2.03655400      0.00633900
C       -0.07225900      0.92439500      0.00478500
C       -1.45814800      1.02610600      0.00234300
C       -2.18791300     -0.15191200     -0.00003900
Cl      -3.93544800     -0.05907700     -0.00488400
C       -1.59128000     -1.41529900      0.00028100
C       -0.21187000     -1.50914600      0.00295500
C        0.53470800     -0.33088300      0.00522900
H        4.86528274     -0.81497344     -0.84105226
H        4.93493574     -0.97430344      0.71921374
H        2.89438900      1.55736800     -0.88912900
H        2.91232200      1.56283500      0.86861400
H        0.81818100      2.66486500      0.89119200
H        0.81040300      2.67653800     -0.86884200
H       -1.95076500      1.99059300      0.00166600
H       -2.20458300     -2.30722900     -0.00229100
H        0.26780700     -2.48014500      0.00239400

B 2 1 F

--Link1--
%chk=mol_004_E_scan_pt6.chk
%nprocshared=8
%mem=16GB
#p wB97XD/6-311+G(d,p) Geom=Check Guess=Read Stable=Opt Pop=NBO7Read Density=Current scrf=(smd,solvent=water)

mol_004_E SP+NBO7/CMO after constrained opt at R0+0.30A  [oxime: C3=N2-O1]

1 1

$NBO CMO PRINT=2 E2PERT=0.05 BNDIDX $END


