24
mol_033_E_opt
O       -2.750400      2.387400      0.272100
N       -1.100600      2.086800     -0.015100
C       -0.933500      0.821600      0.029200
C       -1.984400     -0.231100      0.237200
C       -1.484700     -1.628900     -0.081900
C       -0.152600     -1.885400      0.594600
C        0.867600     -0.881700      0.159500
C        2.198700     -1.242900      0.027600
C        3.140600     -0.308300     -0.379100
Cl       4.795800     -0.783500     -0.538700
C        2.773000      1.008400     -0.661600
C        1.454800      1.376400     -0.528800
C        0.485300      0.444400     -0.124700
H       -2.676500      3.073800      0.963100
H       -2.993600      2.846800     -0.555000
H       -2.866100      0.020800     -0.348000
H       -2.278700     -0.152700      1.285200
H       -2.226500     -2.349300      0.250500
H       -1.377900     -1.746500     -1.160400
H       -0.277800     -1.825500      1.680000
H        0.188900     -2.895400      0.383900
H        2.507200     -2.256700      0.236200
H        3.518400      1.722400     -0.977700
H        1.173000      2.398800     -0.748200
